*SPEF "ieee 1481-1999"
*DESIGN "uart_tx"
*DATE "17:31:29 Wednesday September 16, 2026"
*VENDOR "The OpenROAD Project"
*PROGRAM "OpenROAD"
*VERSION "dcf36133a369abc8f3c5e5738cd4d82e4903c0e0"
*DESIGN_FLOW "NAME_SCOPE LOCAL" "PIN_CAP NONE"
*DIVIDER /
*DELIMITER :
*BUS_DELIMITER []
*T_UNIT 1 NS
*C_UNIT 1 PF
*R_UNIT 1 OHM
*L_UNIT 1 HENRY

*NAME_MAP
*3 busy
*4 clk
*5 rst
*6 tx
*7 tx_data[0]
*8 tx_data[1]
*9 tx_data[2]
*10 tx_data[3]
*11 tx_data[4]
*12 tx_data[5]
*13 tx_data[6]
*14 tx_data[7]
*15 tx_start
*16 _000_
*17 _001_
*18 _002_
*19 _003_
*20 _004_
*21 _005_
*22 _006_
*23 _007_
*24 _008_
*25 _009_
*26 _010_
*27 _011_
*28 _012_
*29 _013_
*30 _014_
*31 _015_
*32 _016_
*33 _017_
*34 _018_
*35 _019_
*36 _020_
*37 _021_
*38 _022_
*39 _023_
*40 _024_
*41 _025_
*42 _026_
*43 _027_
*44 _028_
*45 _029_
*46 _030_
*47 _031_
*48 _032_
*49 _033_
*50 _034_
*51 _035_
*52 _036_
*53 _037_
*54 _038_
*55 _039_
*56 _040_
*57 _041_
*58 _042_
*59 _043_
*60 _044_
*61 _045_
*62 _046_
*63 _047_
*64 _048_
*65 _049_
*66 _050_
*67 _051_
*68 _052_
*69 _053_
*70 _054_
*71 _055_
*72 _056_
*73 _057_
*74 _058_
*75 _059_
*76 _060_
*77 _061_
*78 _062_
*79 _063_
*80 _064_
*81 _065_
*82 _066_
*83 _067_
*84 _068_
*85 _069_
*86 _070_
*87 _071_
*88 _072_
*89 _073_
*90 _074_
*91 _075_
*92 _076_
*93 _077_
*94 _078_
*95 _079_
*96 _080_
*97 _081_
*98 _082_
*99 _083_
*100 _084_
*101 _085_
*102 _086_
*103 _087_
*104 _088_
*105 _089_
*106 _090_
*107 _091_
*108 _092_
*109 _093_
*110 _094_
*111 _095_
*112 _096_
*113 _097_
*114 _098_
*115 _099_
*116 _100_
*117 _101_
*118 _102_
*119 _103_
*120 _104_
*121 _105_
*122 _106_
*123 baud_counter\[0\]
*124 baud_counter\[10\]
*125 baud_counter\[11\]
*126 baud_counter\[12\]
*127 baud_counter\[13\]
*128 baud_counter\[14\]
*129 baud_counter\[15\]
*130 baud_counter\[1\]
*131 baud_counter\[2\]
*132 baud_counter\[3\]
*133 baud_counter\[4\]
*134 baud_counter\[5\]
*135 baud_counter\[6\]
*136 baud_counter\[7\]
*137 baud_counter\[8\]
*138 baud_counter\[9\]
*139 bit_index\[0\]
*140 bit_index\[1\]
*141 bit_index\[2\]
*142 bit_index\[3\]
*143 clknet_0_clk
*144 clknet_2_0__leaf_clk
*145 clknet_2_1__leaf_clk
*146 clknet_2_2__leaf_clk
*147 clknet_2_3__leaf_clk
*148 net1
*149 net10
*150 net11
*151 net12
*152 net2
*153 net3
*154 net4
*155 net5
*156 net6
*157 net7
*158 net8
*159 net9
*160 tx_shift\[1\]
*161 tx_shift\[2\]
*162 tx_shift\[3\]
*163 tx_shift\[4\]
*164 tx_shift\[5\]
*165 tx_shift\[6\]
*166 tx_shift\[7\]
*167 tx_shift\[8\]
*168 tx_shift\[9\]
*169 FILLER_0_100
*170 FILLER_0_103
*171 FILLER_0_106
*172 FILLER_0_109
*173 FILLER_0_113
*174 FILLER_0_116
*175 FILLER_0_119
*176 FILLER_0_12
*177 FILLER_0_122
*178 FILLER_0_125
*179 FILLER_0_128
*180 FILLER_0_131
*181 FILLER_0_15
*182 FILLER_0_27
*183 FILLER_0_3
*184 FILLER_0_37
*185 FILLER_0_6
*186 FILLER_0_65
*187 FILLER_0_68
*188 FILLER_0_71
*189 FILLER_0_74
*190 FILLER_0_77
*191 FILLER_0_80
*192 FILLER_0_83
*193 FILLER_0_85
*194 FILLER_0_88
*195 FILLER_0_9
*196 FILLER_0_91
*197 FILLER_0_94
*198 FILLER_0_97
*199 FILLER_10_100
*200 FILLER_10_103
*201 FILLER_10_106
*202 FILLER_10_109
*203 FILLER_10_11
*204 FILLER_10_112
*205 FILLER_10_115
*206 FILLER_10_118
*207 FILLER_10_121
*208 FILLER_10_124
*209 FILLER_10_127
*210 FILLER_10_130
*211 FILLER_10_133
*212 FILLER_10_22
*213 FILLER_10_25
*214 FILLER_10_29
*215 FILLER_10_32
*216 FILLER_10_35
*217 FILLER_10_38
*218 FILLER_10_41
*219 FILLER_10_52
*220 FILLER_10_55
*221 FILLER_10_58
*222 FILLER_10_61
*223 FILLER_10_64
*224 FILLER_10_80
*225 FILLER_10_83
*226 FILLER_10_85
*227 FILLER_10_88
*228 FILLER_10_91
*229 FILLER_10_94
*230 FILLER_10_97
*231 FILLER_11_100
*232 FILLER_11_103
*233 FILLER_11_106
*234 FILLER_11_109
*235 FILLER_11_113
*236 FILLER_11_116
*237 FILLER_11_119
*238 FILLER_11_122
*239 FILLER_11_125
*240 FILLER_11_128
*241 FILLER_11_131
*242 FILLER_11_24
*243 FILLER_11_27
*244 FILLER_11_30
*245 FILLER_11_33
*246 FILLER_11_36
*247 FILLER_11_39
*248 FILLER_11_42
*249 FILLER_11_57
*250 FILLER_11_60
*251 FILLER_11_82
*252 FILLER_11_85
*253 FILLER_11_88
*254 FILLER_11_91
*255 FILLER_11_94
*256 FILLER_11_97
*257 FILLER_12_100
*258 FILLER_12_11
*259 FILLER_12_110
*260 FILLER_12_127
*261 FILLER_12_130
*262 FILLER_12_133
*263 FILLER_12_14
*264 FILLER_12_24
*265 FILLER_12_27
*266 FILLER_12_29
*267 FILLER_12_32
*268 FILLER_12_47
*269 FILLER_12_50
*270 FILLER_12_53
*271 FILLER_12_56
*272 FILLER_12_59
*273 FILLER_12_62
*274 FILLER_12_65
*275 FILLER_12_68
*276 FILLER_12_88
*277 FILLER_12_91
*278 FILLER_12_94
*279 FILLER_12_97
*280 FILLER_13_104
*281 FILLER_13_107
*282 FILLER_13_110
*283 FILLER_13_133
*284 FILLER_13_28
*285 FILLER_13_3
*286 FILLER_13_31
*287 FILLER_13_34
*288 FILLER_13_37
*289 FILLER_13_40
*290 FILLER_13_43
*291 FILLER_13_49
*292 FILLER_13_52
*293 FILLER_13_55
*294 FILLER_13_57
*295 FILLER_13_60
*296 FILLER_13_90
*297 FILLER_13_93
*298 FILLER_14_101
*299 FILLER_14_104
*300 FILLER_14_107
*301 FILLER_14_130
*302 FILLER_14_133
*303 FILLER_14_22
*304 FILLER_14_29
*305 FILLER_14_32
*306 FILLER_14_43
*307 FILLER_14_68
*308 FILLER_14_83
*309 FILLER_14_85
*310 FILLER_14_88
*311 FILLER_14_91
*312 FILLER_15_111
*313 FILLER_15_113
*314 FILLER_15_116
*315 FILLER_15_119
*316 FILLER_15_122
*317 FILLER_15_125
*318 FILLER_15_128
*319 FILLER_15_131
*320 FILLER_15_26
*321 FILLER_15_29
*322 FILLER_15_3
*323 FILLER_15_32
*324 FILLER_15_51
*325 FILLER_15_54
*326 FILLER_15_57
*327 FILLER_15_6
*328 FILLER_15_60
*329 FILLER_15_75
*330 FILLER_15_78
*331 FILLER_15_81
*332 FILLER_15_84
*333 FILLER_15_87
*334 FILLER_15_90
*335 FILLER_15_93
*336 FILLER_16_103
*337 FILLER_16_106
*338 FILLER_16_109
*339 FILLER_16_112
*340 FILLER_16_115
*341 FILLER_16_118
*342 FILLER_16_12
*343 FILLER_16_121
*344 FILLER_16_124
*345 FILLER_16_127
*346 FILLER_16_130
*347 FILLER_16_133
*348 FILLER_16_15
*349 FILLER_16_24
*350 FILLER_16_27
*351 FILLER_16_29
*352 FILLER_16_3
*353 FILLER_16_32
*354 FILLER_16_35
*355 FILLER_16_44
*356 FILLER_16_47
*357 FILLER_16_50
*358 FILLER_16_53
*359 FILLER_16_56
*360 FILLER_16_59
*361 FILLER_16_6
*362 FILLER_16_62
*363 FILLER_16_65
*364 FILLER_16_68
*365 FILLER_16_71
*366 FILLER_16_74
*367 FILLER_16_77
*368 FILLER_16_80
*369 FILLER_16_83
*370 FILLER_16_9
*371 FILLER_17_104
*372 FILLER_17_107
*373 FILLER_17_110
*374 FILLER_17_118
*375 FILLER_17_12
*376 FILLER_17_121
*377 FILLER_17_124
*378 FILLER_17_127
*379 FILLER_17_130
*380 FILLER_17_133
*381 FILLER_17_15
*382 FILLER_17_18
*383 FILLER_17_27
*384 FILLER_17_3
*385 FILLER_17_30
*386 FILLER_17_33
*387 FILLER_17_57
*388 FILLER_17_6
*389 FILLER_17_60
*390 FILLER_17_63
*391 FILLER_17_66
*392 FILLER_17_69
*393 FILLER_17_72
*394 FILLER_17_75
*395 FILLER_17_78
*396 FILLER_17_81
*397 FILLER_17_9
*398 FILLER_18_108
*399 FILLER_18_111
*400 FILLER_18_125
*401 FILLER_18_128
*402 FILLER_18_131
*403 FILLER_18_25
*404 FILLER_18_29
*405 FILLER_18_3
*406 FILLER_18_32
*407 FILLER_18_35
*408 FILLER_18_52
*409 FILLER_18_55
*410 FILLER_18_58
*411 FILLER_18_6
*412 FILLER_18_61
*413 FILLER_18_64
*414 FILLER_18_67
*415 FILLER_18_70
*416 FILLER_18_80
*417 FILLER_18_83
*418 FILLER_18_90
*419 FILLER_19_102
*420 FILLER_19_105
*421 FILLER_19_113
*422 FILLER_19_131
*423 FILLER_19_25
*424 FILLER_19_28
*425 FILLER_19_54
*426 FILLER_19_64
*427 FILLER_19_96
*428 FILLER_19_99
*429 FILLER_1_101
*430 FILLER_1_104
*431 FILLER_1_107
*432 FILLER_1_110
*433 FILLER_1_121
*434 FILLER_1_124
*435 FILLER_1_127
*436 FILLER_1_130
*437 FILLER_1_133
*438 FILLER_1_20
*439 FILLER_1_3
*440 FILLER_1_38
*441 FILLER_1_55
*442 FILLER_1_57
*443 FILLER_1_6
*444 FILLER_1_60
*445 FILLER_1_63
*446 FILLER_1_66
*447 FILLER_1_69
*448 FILLER_1_72
*449 FILLER_1_75
*450 FILLER_1_9
*451 FILLER_1_95
*452 FILLER_1_98
*453 FILLER_20_102
*454 FILLER_20_105
*455 FILLER_20_108
*456 FILLER_20_131
*457 FILLER_20_26
*458 FILLER_20_29
*459 FILLER_20_3
*460 FILLER_20_32
*461 FILLER_20_35
*462 FILLER_20_38
*463 FILLER_20_6
*464 FILLER_20_65
*465 FILLER_21_101
*466 FILLER_21_104
*467 FILLER_21_107
*468 FILLER_21_110
*469 FILLER_21_113
*470 FILLER_21_116
*471 FILLER_21_120
*472 FILLER_21_123
*473 FILLER_21_126
*474 FILLER_21_129
*475 FILLER_21_132
*476 FILLER_21_19
*477 FILLER_21_22
*478 FILLER_21_25
*479 FILLER_21_28
*480 FILLER_21_3
*481 FILLER_21_31
*482 FILLER_21_34
*483 FILLER_21_37
*484 FILLER_21_40
*485 FILLER_21_43
*486 FILLER_21_46
*487 FILLER_21_55
*488 FILLER_21_57
*489 FILLER_21_6
*490 FILLER_21_60
*491 FILLER_21_63
*492 FILLER_21_66
*493 FILLER_21_69
*494 FILLER_21_72
*495 FILLER_21_75
*496 FILLER_21_78
*497 FILLER_21_81
*498 FILLER_21_89
*499 FILLER_21_9
*500 FILLER_21_92
*501 FILLER_21_95
*502 FILLER_21_98
*503 FILLER_22_100
*504 FILLER_22_103
*505 FILLER_22_106
*506 FILLER_22_109
*507 FILLER_22_113
*508 FILLER_22_116
*509 FILLER_22_119
*510 FILLER_22_12
*511 FILLER_22_122
*512 FILLER_22_125
*513 FILLER_22_128
*514 FILLER_22_131
*515 FILLER_22_15
*516 FILLER_22_18
*517 FILLER_22_21
*518 FILLER_22_24
*519 FILLER_22_27
*520 FILLER_22_29
*521 FILLER_22_3
*522 FILLER_22_32
*523 FILLER_22_35
*524 FILLER_22_38
*525 FILLER_22_41
*526 FILLER_22_44
*527 FILLER_22_47
*528 FILLER_22_50
*529 FILLER_22_53
*530 FILLER_22_57
*531 FILLER_22_6
*532 FILLER_22_60
*533 FILLER_22_63
*534 FILLER_22_66
*535 FILLER_22_69
*536 FILLER_22_72
*537 FILLER_22_75
*538 FILLER_22_78
*539 FILLER_22_81
*540 FILLER_22_85
*541 FILLER_22_88
*542 FILLER_22_9
*543 FILLER_22_91
*544 FILLER_22_94
*545 FILLER_22_97
*546 FILLER_2_105
*547 FILLER_2_132
*548 FILLER_2_27
*549 FILLER_2_29
*550 FILLER_2_3
*551 FILLER_2_32
*552 FILLER_2_68
*553 FILLER_2_71
*554 FILLER_2_74
*555 FILLER_2_77
*556 FILLER_2_80
*557 FILLER_2_83
*558 FILLER_2_93
*559 FILLER_2_96
*560 FILLER_3_101
*561 FILLER_3_130
*562 FILLER_3_133
*563 FILLER_3_14
*564 FILLER_3_17
*565 FILLER_3_20
*566 FILLER_3_3
*567 FILLER_3_30
*568 FILLER_3_33
*569 FILLER_3_36
*570 FILLER_3_39
*571 FILLER_3_6
*572 FILLER_3_66
*573 FILLER_3_69
*574 FILLER_3_72
*575 FILLER_3_75
*576 FILLER_4_100
*577 FILLER_4_11
*578 FILLER_4_122
*579 FILLER_4_125
*580 FILLER_4_128
*581 FILLER_4_131
*582 FILLER_4_21
*583 FILLER_4_24
*584 FILLER_4_27
*585 FILLER_4_29
*586 FILLER_4_32
*587 FILLER_4_35
*588 FILLER_4_38
*589 FILLER_4_41
*590 FILLER_4_65
*591 FILLER_4_68
*592 FILLER_4_71
*593 FILLER_4_74
*594 FILLER_4_77
*595 FILLER_4_80
*596 FILLER_4_83
*597 FILLER_5_107
*598 FILLER_5_110
*599 FILLER_5_12
*600 FILLER_5_120
*601 FILLER_5_123
*602 FILLER_5_126
*603 FILLER_5_129
*604 FILLER_5_132
*605 FILLER_5_22
*606 FILLER_5_25
*607 FILLER_5_28
*608 FILLER_5_3
*609 FILLER_5_31
*610 FILLER_5_34
*611 FILLER_5_37
*612 FILLER_5_50
*613 FILLER_5_53
*614 FILLER_5_57
*615 FILLER_5_6
*616 FILLER_5_60
*617 FILLER_5_63
*618 FILLER_5_66
*619 FILLER_5_69
*620 FILLER_5_9
*621 FILLER_6_101
*622 FILLER_6_104
*623 FILLER_6_107
*624 FILLER_6_110
*625 FILLER_6_113
*626 FILLER_6_116
*627 FILLER_6_119
*628 FILLER_6_122
*629 FILLER_6_125
*630 FILLER_6_128
*631 FILLER_6_131
*632 FILLER_6_25
*633 FILLER_6_29
*634 FILLER_6_32
*635 FILLER_6_59
*636 FILLER_6_62
*637 FILLER_6_65
*638 FILLER_6_68
*639 FILLER_6_71
*640 FILLER_6_74
*641 FILLER_6_77
*642 FILLER_6_83
*643 FILLER_6_85
*644 FILLER_6_88
*645 FILLER_6_91
*646 FILLER_6_98
*647 FILLER_7_11
*648 FILLER_7_113
*649 FILLER_7_116
*650 FILLER_7_22
*651 FILLER_7_25
*652 FILLER_7_28
*653 FILLER_7_31
*654 FILLER_7_34
*655 FILLER_7_37
*656 FILLER_7_57
*657 FILLER_7_60
*658 FILLER_7_63
*659 FILLER_7_66
*660 FILLER_7_69
*661 FILLER_7_72
*662 FILLER_7_91
*663 FILLER_7_94
*664 FILLER_8_128
*665 FILLER_8_131
*666 FILLER_8_25
*667 FILLER_8_29
*668 FILLER_8_32
*669 FILLER_8_35
*670 FILLER_8_60
*671 FILLER_8_63
*672 FILLER_8_66
*673 FILLER_8_69
*674 FILLER_8_85
*675 FILLER_8_88
*676 FILLER_8_91
*677 FILLER_8_94
*678 FILLER_8_97
*679 FILLER_9_102
*680 FILLER_9_105
*681 FILLER_9_108
*682 FILLER_9_11
*683 FILLER_9_111
*684 FILLER_9_121
*685 FILLER_9_124
*686 FILLER_9_127
*687 FILLER_9_130
*688 FILLER_9_133
*689 FILLER_9_21
*690 FILLER_9_24
*691 FILLER_9_27
*692 FILLER_9_30
*693 FILLER_9_33
*694 FILLER_9_36
*695 FILLER_9_54
*696 FILLER_9_57
*697 FILLER_9_60
*698 FILLER_9_63
*699 FILLER_9_66
*700 FILLER_9_69
*701 FILLER_9_72
*702 FILLER_9_87
*703 FILLER_9_90
*704 FILLER_9_93
*705 FILLER_9_96
*706 FILLER_9_99
*707 PHY_EDGE_ROW_0_Left_23
*708 PHY_EDGE_ROW_0_Right_0
*709 PHY_EDGE_ROW_10_Left_33
*710 PHY_EDGE_ROW_10_Right_10
*711 PHY_EDGE_ROW_11_Left_34
*712 PHY_EDGE_ROW_11_Right_11
*713 PHY_EDGE_ROW_12_Left_35
*714 PHY_EDGE_ROW_12_Right_12
*715 PHY_EDGE_ROW_13_Left_36
*716 PHY_EDGE_ROW_13_Right_13
*717 PHY_EDGE_ROW_14_Left_37
*718 PHY_EDGE_ROW_14_Right_14
*719 PHY_EDGE_ROW_15_Left_38
*720 PHY_EDGE_ROW_15_Right_15
*721 PHY_EDGE_ROW_16_Left_39
*722 PHY_EDGE_ROW_16_Right_16
*723 PHY_EDGE_ROW_17_Left_40
*724 PHY_EDGE_ROW_17_Right_17
*725 PHY_EDGE_ROW_18_Left_41
*726 PHY_EDGE_ROW_18_Right_18
*727 PHY_EDGE_ROW_19_Left_42
*728 PHY_EDGE_ROW_19_Right_19
*729 PHY_EDGE_ROW_1_Left_24
*730 PHY_EDGE_ROW_1_Right_1
*731 PHY_EDGE_ROW_20_Left_43
*732 PHY_EDGE_ROW_20_Right_20
*733 PHY_EDGE_ROW_21_Left_44
*734 PHY_EDGE_ROW_21_Right_21
*735 PHY_EDGE_ROW_22_Left_45
*736 PHY_EDGE_ROW_22_Right_22
*737 PHY_EDGE_ROW_2_Left_25
*738 PHY_EDGE_ROW_2_Right_2
*739 PHY_EDGE_ROW_3_Left_26
*740 PHY_EDGE_ROW_3_Right_3
*741 PHY_EDGE_ROW_4_Left_27
*742 PHY_EDGE_ROW_4_Right_4
*743 PHY_EDGE_ROW_5_Left_28
*744 PHY_EDGE_ROW_5_Right_5
*745 PHY_EDGE_ROW_6_Left_29
*746 PHY_EDGE_ROW_6_Right_6
*747 PHY_EDGE_ROW_7_Left_30
*748 PHY_EDGE_ROW_7_Right_7
*749 PHY_EDGE_ROW_8_Left_31
*750 PHY_EDGE_ROW_8_Right_8
*751 PHY_EDGE_ROW_9_Left_32
*752 PHY_EDGE_ROW_9_Right_9
*753 TAP_TAPCELL_ROW_0_46
*754 TAP_TAPCELL_ROW_0_47
*755 TAP_TAPCELL_ROW_0_48
*756 TAP_TAPCELL_ROW_0_49
*757 TAP_TAPCELL_ROW_10_68
*758 TAP_TAPCELL_ROW_10_69
*759 TAP_TAPCELL_ROW_11_70
*760 TAP_TAPCELL_ROW_11_71
*761 TAP_TAPCELL_ROW_12_72
*762 TAP_TAPCELL_ROW_12_73
*763 TAP_TAPCELL_ROW_13_74
*764 TAP_TAPCELL_ROW_13_75
*765 TAP_TAPCELL_ROW_14_76
*766 TAP_TAPCELL_ROW_14_77
*767 TAP_TAPCELL_ROW_15_78
*768 TAP_TAPCELL_ROW_15_79
*769 TAP_TAPCELL_ROW_16_80
*770 TAP_TAPCELL_ROW_16_81
*771 TAP_TAPCELL_ROW_17_82
*772 TAP_TAPCELL_ROW_17_83
*773 TAP_TAPCELL_ROW_18_84
*774 TAP_TAPCELL_ROW_18_85
*775 TAP_TAPCELL_ROW_19_86
*776 TAP_TAPCELL_ROW_19_87
*777 TAP_TAPCELL_ROW_1_50
*778 TAP_TAPCELL_ROW_1_51
*779 TAP_TAPCELL_ROW_20_88
*780 TAP_TAPCELL_ROW_20_89
*781 TAP_TAPCELL_ROW_21_90
*782 TAP_TAPCELL_ROW_21_91
*783 TAP_TAPCELL_ROW_22_92
*784 TAP_TAPCELL_ROW_22_93
*785 TAP_TAPCELL_ROW_22_94
*786 TAP_TAPCELL_ROW_22_95
*787 TAP_TAPCELL_ROW_2_52
*788 TAP_TAPCELL_ROW_2_53
*789 TAP_TAPCELL_ROW_3_54
*790 TAP_TAPCELL_ROW_3_55
*791 TAP_TAPCELL_ROW_4_56
*792 TAP_TAPCELL_ROW_4_57
*793 TAP_TAPCELL_ROW_5_58
*794 TAP_TAPCELL_ROW_5_59
*795 TAP_TAPCELL_ROW_6_60
*796 TAP_TAPCELL_ROW_6_61
*797 TAP_TAPCELL_ROW_7_62
*798 TAP_TAPCELL_ROW_7_63
*799 TAP_TAPCELL_ROW_8_64
*800 TAP_TAPCELL_ROW_8_65
*801 TAP_TAPCELL_ROW_9_66
*802 TAP_TAPCELL_ROW_9_67
*803 _107_
*804 _108_
*805 _109_
*806 _110_
*807 _111_
*808 _112_
*809 _113_
*810 _114_
*811 _115_
*812 _116_
*813 _117_
*814 _118_
*815 _119_
*816 _120_
*817 _121_
*818 _122_
*819 _123_
*820 _124_
*821 _125_
*822 _126_
*823 _127_
*824 _128_
*825 _129_
*826 _130_
*827 _131_
*828 _132_
*829 _133_
*830 _134_
*831 _135_
*832 _136_
*833 _137_
*834 _138_
*835 _139_
*836 _140_
*837 _141_
*838 _142_
*839 _143_
*840 _144_
*841 _145_
*842 _146_
*843 _147_
*844 _148_
*845 _149_
*846 _150_
*847 _151_
*848 _152_
*849 _153_
*850 _154_
*851 _155_
*852 _156_
*853 _157_
*854 _158_
*855 _159_
*856 _160_
*857 _161_
*858 _162_
*859 _163_
*860 _164_
*861 _165_
*862 _166_
*863 _167_
*864 _168_
*865 _169_
*866 _170_
*867 _171_
*868 _172_
*869 _173_
*870 _174_
*871 _175_
*872 _176_
*873 _177_
*874 _178_
*875 _179_
*876 _180_
*877 _181_
*878 _182_
*879 _183_
*880 _184_
*881 _185_
*882 _186_
*883 _187_
*884 _188_
*885 _189_
*886 _190_
*887 _191_
*888 _192_
*889 _193_
*890 _194_
*891 _195_
*892 _196_
*893 _197_
*894 _198_
*895 _199_
*896 _200_
*897 _201_
*898 _202_
*899 _203_
*900 _204_
*901 _205_
*902 _206_
*903 _207_
*904 _208_
*905 _209_
*906 _210_
*907 _211_
*908 _212_
*909 _213_
*910 _214_
*911 _215_
*912 _216_
*913 _217_
*914 _218_
*915 _219_
*916 _220_
*917 _221_
*918 _222_
*919 _223_
*920 _224_
*921 _225_
*922 _226_
*923 _227_
*924 _228_
*925 _229_
*926 _230_
*927 _231_
*928 _232_
*929 _233_
*930 _234_
*931 _235_
*932 _236_
*933 _237_
*934 _238_
*935 _239_
*936 _240_
*937 _241_
*938 _242_
*939 _243_
*940 _244_
*941 clkbuf_0_clk
*942 clkbuf_2_0__f_clk
*943 clkbuf_2_1__f_clk
*944 clkbuf_2_2__f_clk
*945 clkbuf_2_3__f_clk
*946 clkload0
*947 clkload1
*948 clkload2
*949 input1
*950 input10
*951 input2
*952 input3
*953 input4
*954 input5
*955 input6
*956 input7
*957 input8
*958 input9
*959 output11
*960 output12

*PORTS
busy O
clk I
rst I
tx O
tx_data[0] I
tx_data[1] I
tx_data[2] I
tx_data[3] I
tx_data[4] I
tx_data[5] I
tx_data[6] I
tx_data[7] I
tx_start I

*D_NET *3 0.000945579
*CONN
*P busy O
*I *959:X O *D sky130_fd_sc_hd__clkdlybuf4s25_1
*CAP
1 busy 0.000361102
2 *959:X 0.000361102
3 busy *950:A 0.000222517
4 busy *4:12 8.57312e-07
*RES
1 *959:X busy 21.0759 
*END

*D_NET *4 0.00723965
*CONN
*P clk I
*I *941:A I *D sky130_fd_sc_hd__clkbuf_16
*CAP
1 clk 0.00135653
2 *941:A 0
3 *4:18 0.00163301
4 *4:12 0.00298954
5 *4:12 *890:A 0
6 *4:12 *890:B 0
7 *4:12 *913:CLK 0
8 *4:12 *913:D 0
9 *4:12 *939:CLK 0
10 *4:12 *146:33 0
11 *4:12 *167:12 0
12 *4:18 *829:B 3.20512e-05
13 *4:18 *857:A3 8.3998e-05
14 *4:18 *857:B1 4.63007e-05
15 *4:18 *864:A 5.93878e-05
16 *4:18 *866:B 5.93954e-05
17 *4:18 *958:A 9.59557e-05
18 *4:18 *103:8 6.53542e-05
19 *4:18 *105:8 2.36641e-05
20 *4:18 *105:25 7.24665e-06
21 *4:18 *115:33 0.000227495
22 *4:18 *116:20 6.81694e-05
23 *4:18 *116:132 0
24 *4:18 *121:46 0.000113957
25 *4:18 *148:30 0.00019149
26 *4:18 *167:12 0.000185247
27 busy *4:12 8.57312e-07
*RES
1 clk *4:12 28.1891 
2 *4:12 *4:18 32.6429 
3 *4:18 *941:A 13.8 
*END

*D_NET *5 0.000908906
*CONN
*P rst I
*I *949:A I *D sky130_fd_sc_hd__clkdlybuf4s25_1
*CAP
1 rst 0.000424863
2 *949:A 0.000424863
3 *949:A *950:A 0
4 *949:A *957:A 0
5 *949:A *958:A 5.918e-05
*RES
1 rst *949:A 22.2901 
*END

*D_NET *6 0.00100658
*CONN
*P tx O
*I *960:X O *D sky130_fd_sc_hd__clkdlybuf4s25_1
*CAP
1 tx 0.00039203
2 *960:X 0.00039203
3 tx *956:A 0
4 tx *957:A 0.000222517
*RES
1 *960:X tx 19.6511 
*END

*D_NET *7 0.00143445
*CONN
*P tx_data[0] I
*I *951:A I *D sky130_fd_sc_hd__clkdlybuf4s25_1
*CAP
1 tx_data[0] 0.000449204
2 *951:A 0.000449204
3 *951:A *835:A1 3.69047e-06
4 *951:A *952:A 0.000532351
5 *951:A *953:A 0
*RES
1 tx_data[0] *951:A 25.8714 
*END

*D_NET *8 0.00145962
*CONN
*P tx_data[1] I
*I *952:A I *D sky130_fd_sc_hd__clkdlybuf4s25_1
*CAP
1 tx_data[1] 0.000463634
2 *952:A 0.000463634
3 *951:A *952:A 0.000532351
*RES
1 tx_data[1] *952:A 25.9964 
*END

*D_NET *9 0.00115785
*CONN
*P tx_data[2] I
*I *953:A I *D sky130_fd_sc_hd__clkdlybuf4s25_1
*CAP
1 tx_data[2] 0.000578927
2 *953:A 0.000578927
3 *951:A *953:A 0
*RES
1 tx_data[2] *953:A 25.05 
*END

*D_NET *10 0.00182457
*CONN
*P tx_data[3] I
*I *954:A I *D sky130_fd_sc_hd__clkdlybuf4s25_1
*CAP
1 tx_data[3] 0.000578319
2 *954:A 0.000578319
3 *954:A *844:A0 3.17163e-05
4 *954:A *844:A1 0.000318107
5 *954:A *844:S 0.000318107
*RES
1 tx_data[3] *954:A 27.5143 
*END

*D_NET *11 0.000804119
*CONN
*P tx_data[4] I
*I *955:A I *D sky130_fd_sc_hd__clkdlybuf4s25_1
*CAP
1 tx_data[4] 0.000402059
2 *955:A 0.000402059
*RES
1 tx_data[4] *955:A 22.3603 
*END

*D_NET *12 0.000873357
*CONN
*P tx_data[5] I
*I *956:A I *D sky130_fd_sc_hd__clkdlybuf4s25_1
*CAP
1 tx_data[5] 0.000436678
2 *956:A 0.000436678
3 tx *956:A 0
*RES
1 tx_data[5] *956:A 24.322 
*END

*D_NET *13 0.000893576
*CONN
*P tx_data[6] I
*I *957:A I *D sky130_fd_sc_hd__clkdlybuf4s25_1
*CAP
1 tx_data[6] 0.00033553
2 *957:A 0.00033553
3 tx *957:A 0.000222517
4 *949:A *957:A 0
*RES
1 tx_data[6] *957:A 21.3794 
*END

*D_NET *14 0.000858863
*CONN
*P tx_data[7] I
*I *958:A I *D sky130_fd_sc_hd__clkdlybuf4s25_1
*CAP
1 tx_data[7] 0.000338658
2 *958:A 0.000338658
3 *958:A *950:A 2.64119e-05
4 *949:A *958:A 5.918e-05
5 *4:18 *958:A 9.59557e-05
*RES
1 tx_data[7] *958:A 23.4113 
*END

*D_NET *15 0.00152605
*CONN
*P tx_start I
*I *950:A I *D sky130_fd_sc_hd__clkdlybuf4s25_1
*CAP
1 tx_start 0.000604817
2 *950:A 0.000604817
3 *950:A *857:A1 0
4 *950:A *939:CLK 6.74911e-05
5 *950:A *100:10 0
6 *950:A *150:32 0
7 busy *950:A 0.000222517
8 *949:A *950:A 0
9 *958:A *950:A 2.64119e-05
*RES
1 tx_start *950:A 20.9783 
*END

*D_NET *16 0.00043904
*CONN
*I *910:D I *D sky130_fd_sc_hd__dfxtp_2
*I *880:X O *D sky130_fd_sc_hd__a211o_2
*CAP
1 *910:D 0.000138097
2 *880:X 0.000138097
3 *910:D *880:A1 6.97682e-05
4 *910:D *910:CLK 7.6644e-05
5 *910:D *960:A 1.64343e-05
*RES
1 *880:X *910:D 30.2473 
*END

*D_NET *17 0.00129545
*CONN
*I *911:D I *D sky130_fd_sc_hd__dfxtp_2
*I *882:X O *D sky130_fd_sc_hd__o211a_2
*CAP
1 *911:D 0.000357172
2 *882:X 0.000357172
3 *911:D *882:A1 3.34672e-05
4 *911:D *911:CLK 4.48612e-05
5 *911:D *110:20 0.000271449
6 *911:D *146:12 4.46186e-06
7 *911:D *146:60 0.000226867
*RES
1 *882:X *911:D 35.0687 
*END

*D_NET *18 0.000848791
*CONN
*I *912:D I *D sky130_fd_sc_hd__dfxtp_2
*I *886:Y O *D sky130_fd_sc_hd__a21oi_2
*CAP
1 *912:D 0.000345148
2 *886:Y 0.000345148
3 *912:D *886:A1 8.67803e-05
4 *912:D *886:B1 0
5 *912:D *150:73 5.0725e-05
6 *912:D *150:92 2.09897e-05
*RES
1 *886:Y *912:D 34.5866 
*END

*D_NET *19 0.000525772
*CONN
*I *913:D I *D sky130_fd_sc_hd__dfxtp_2
*I *890:Y O *D sky130_fd_sc_hd__nor2_2
*CAP
1 *913:D 0.000245033
2 *890:Y 0.000245033
3 *913:D *913:CLK 3.5707e-05
4 *4:12 *913:D 0
*RES
1 *890:Y *913:D 31.3902 
*END

*D_NET *20 0.000635645
*CONN
*I *914:D I *D sky130_fd_sc_hd__dfxtp_2
*I *893:X O *D sky130_fd_sc_hd__and3b_2
*CAP
1 *914:D 0.000182651
2 *893:X 0.000182651
3 *914:D *873:C 7.06457e-05
4 *914:D *873:D_N 0
5 *914:D *891:B1 7.99677e-06
6 *914:D *893:B 5.33005e-05
7 *914:D *893:C 9.91086e-05
8 *914:D *146:97 3.92924e-05
*RES
1 *893:X *914:D 31.3723 
*END

*D_NET *21 0.000435399
*CONN
*I *915:D I *D sky130_fd_sc_hd__dfxtp_2
*I *895:Y O *D sky130_fd_sc_hd__a21oi_2
*CAP
1 *915:D 0.000167542
2 *895:Y 0.000167542
3 *915:D *895:A1 3.67257e-05
4 *915:D *895:A2 0
5 *915:D *895:B1 6.35892e-05
*RES
1 *895:Y *915:D 30.9616 
*END

*D_NET *22 0.000435881
*CONN
*I *916:D I *D sky130_fd_sc_hd__dfxtp_2
*I *898:X O *D sky130_fd_sc_hd__and3b_2
*CAP
1 *916:D 0.000106315
2 *898:X 0.000106315
3 *916:D *898:C 0.0001399
4 *916:D *906:A 8.33504e-05
5 *916:D *53:25 0
*RES
1 *898:X *916:D 21.0688 
*END

*D_NET *23 0.000301814
*CONN
*I *917:D I *D sky130_fd_sc_hd__dfxtp_2
*I *900:X O *D sky130_fd_sc_hd__o21ba_2
*CAP
1 *917:D 7.5461e-05
2 *900:X 7.5461e-05
3 *917:D *900:B1_N 0.000127446
4 *917:D *917:CLK 1.64343e-05
5 *917:D *51:39 7.01199e-06
6 *917:D *53:25 0
*RES
1 *900:X *917:D 29.408 
*END

*D_NET *24 0.000625136
*CONN
*I *918:D I *D sky130_fd_sc_hd__dfxtp_2
*I *903:X O *D sky130_fd_sc_hd__and3b_2
*CAP
1 *918:D 0.000161235
2 *903:X 0.000161235
3 *918:D *903:C 0.000151333
4 *918:D *112:14 0.000151333
*RES
1 *903:X *918:D 30.9393 
*END

*D_NET *25 0.00057714
*CONN
*I *919:D I *D sky130_fd_sc_hd__dfxtp_2
*I *906:X O *D sky130_fd_sc_hd__and3_2
*CAP
1 *919:D 0.000195239
2 *906:X 0.000195239
3 *919:D *919:CLK 0.000186662
*RES
1 *906:X *919:D 21.8902 
*END

*D_NET *26 0.000627812
*CONN
*I *920:D I *D sky130_fd_sc_hd__dfxtp_2
*I *908:X O *D sky130_fd_sc_hd__o211a_2
*CAP
1 *920:D 0.000238713
2 *908:X 0.000238713
3 *920:D *908:A1 0.000115611
4 *920:D *136:14 3.47737e-05
5 *920:D *137:29 0
*RES
1 *908:X *920:D 32.658 
*END

*D_NET *27 0.000390702
*CONN
*I *921:D I *D sky130_fd_sc_hd__dfxtp_2
*I *804:X O *D sky130_fd_sc_hd__and3b_2
*CAP
1 *921:D 0.00012345
2 *804:X 0.00012345
3 *921:D *804:C 7.8327e-05
4 *921:D *869:A 5.80706e-06
5 *921:D *903:B 0
6 *921:D *108:8 3.0627e-05
7 *921:D *120:102 4.46186e-06
8 *921:D *138:38 2.4579e-05
*RES
1 *804:X *921:D 30.4036 
*END

*D_NET *28 0.000647823
*CONN
*I *922:D I *D sky130_fd_sc_hd__dfxtp_2
*I *807:X O *D sky130_fd_sc_hd__and3b_2
*CAP
1 *922:D 0.000308679
2 *807:X 0.000308679
3 *922:D *806:A 0
4 *922:D *807:C 1.40306e-05
5 *922:D *64:12 0
6 *922:D *124:14 1.64343e-05
*RES
1 *807:X *922:D 32.3723 
*END

*D_NET *29 0.000684379
*CONN
*I *923:D I *D sky130_fd_sc_hd__dfxtp_2
*I *809:X O *D sky130_fd_sc_hd__o21ba_2
*CAP
1 *923:D 0.000163165
2 *809:X 0.000163165
3 *923:D *805:B 5.46383e-06
4 *923:D *923:CLK 9.8126e-05
5 *923:D *62:18 5.87643e-05
6 *923:D *120:55 9.8126e-05
7 *923:D *124:14 9.75679e-05
*RES
1 *809:X *923:D 31.0152 
*END

*D_NET *30 0.000459514
*CONN
*I *924:D I *D sky130_fd_sc_hd__dfxtp_2
*I *812:X O *D sky130_fd_sc_hd__and3b_2
*CAP
1 *924:D 0.000229757
2 *812:X 0.000229757
3 *924:D *812:A_N 0
4 *924:D *924:CLK 0
5 *924:D *126:10 0
*RES
1 *812:X *924:D 31.3545 
*END

*D_NET *31 0.000808527
*CONN
*I *925:D I *D sky130_fd_sc_hd__dfxtp_2
*I *815:X O *D sky130_fd_sc_hd__o21ba_2
*CAP
1 *925:D 0.0003509
2 *815:X 0.0003509
3 *925:D *815:B1_N 1.92905e-05
4 *925:D *924:CLK 1.76039e-05
5 *925:D *934:CLK 5.33978e-05
6 *925:D *145:16 1.64343e-05
*RES
1 *815:X *925:D 32.408 
*END

*D_NET *32 0.00103194
*CONN
*I *926:D I *D sky130_fd_sc_hd__dfxtp_2
*I *818:X O *D sky130_fd_sc_hd__and3_2
*CAP
1 *926:D 0.000327226
2 *818:X 0.000327226
3 *926:D *817:C 2.89016e-05
4 *926:D *818:C 0.000142856
5 *926:D *821:A2 3.40781e-05
6 *926:D *64:26 0.000128146
7 *926:D *128:36 4.35048e-05
*RES
1 *818:X *926:D 33.1 
*END

*D_NET *33 0.000415478
*CONN
*I *927:D I *D sky130_fd_sc_hd__dfxtp_2
*I *821:X O *D sky130_fd_sc_hd__o211a_2
*CAP
1 *927:D 0.000125073
2 *821:X 0.000125073
3 *927:D *821:A1 6.42145e-05
4 *927:D *129:8 0.000101117
*RES
1 *821:X *927:D 30.2295 
*END

*D_NET *34 0.000381259
*CONN
*I *928:D I *D sky130_fd_sc_hd__dfxtp_2
*I *823:Y O *D sky130_fd_sc_hd__nor2_2
*CAP
1 *928:D 0.000155438
2 *823:Y 0.000155438
3 *928:D *823:A 7.25873e-06
4 *928:D *67:10 0
5 *928:D *121:63 2.12647e-05
6 *928:D *143:29 4.18589e-05
*RES
1 *823:Y *928:D 30.2473 
*END

*D_NET *35 0.00153648
*CONN
*I *929:D I *D sky130_fd_sc_hd__dfxtp_2
*I *827:X O *D sky130_fd_sc_hd__and3b_2
*CAP
1 *929:D 0.000449576
2 *827:X 0.000449576
3 *929:D *823:B 0.000101777
4 *929:D *826:A 0.000143566
5 *929:D *120:30 9.71197e-05
6 *929:D *120:43 0.000184745
7 *929:D *121:50 0.000110121
8 *929:D *143:11 0
*RES
1 *827:X *929:D 37.3009 
*END

*D_NET *36 0.00129299
*CONN
*I *930:D I *D sky130_fd_sc_hd__dfxtp_2
*I *831:X O *D sky130_fd_sc_hd__o21a_2
*CAP
1 *930:D 0.000206475
2 *831:X 0.000206475
3 *930:D *832:B 1.3142e-05
4 *930:D *870:C 0.000200406
5 *930:D *871:C 0.000247771
6 *930:D *930:CLK 8.82363e-05
7 *930:D *116:132 3.0627e-05
8 *930:D *140:33 1.87097e-05
9 *930:D *143:11 5.56943e-05
10 *930:D *143:65 0.000225449
*RES
1 *831:X *930:D 35.2607 
*END

*D_NET *37 0.0003262
*CONN
*I *931:D I *D sky130_fd_sc_hd__dfxtp_2
*I *833:X O *D sky130_fd_sc_hd__and3_2
*CAP
1 *931:D 4.49958e-05
2 *833:X 4.49958e-05
3 *931:D *833:C 0.000179061
4 *931:D *931:CLK 5.71472e-05
*RES
1 *833:X *931:D 20.2786 
*END

*D_NET *38 0.00140308
*CONN
*I *932:D I *D sky130_fd_sc_hd__dfxtp_2
*I *837:X O *D sky130_fd_sc_hd__or2_2
*CAP
1 *932:D 0.000458306
2 *837:X 0.000458306
3 *932:D *837:B 0
4 *932:D *910:CLK 3.45899e-05
5 *932:D *946:A 0.000172032
6 *932:D *104:43 0.000101999
7 *932:D *144:10 5.14352e-05
8 *932:D *144:80 0.000126416
*RES
1 *837:X *932:D 36.9214 
*END

*D_NET *39 0.00127602
*CONN
*I *933:D I *D sky130_fd_sc_hd__dfxtp_2
*I *840:X O *D sky130_fd_sc_hd__or2_2
*CAP
1 *933:D 0.000461482
2 *840:X 0.000461482
3 *933:D *835:A0 9.99644e-06
4 *933:D *835:A1 7.50601e-05
5 *933:D *835:S 0.00010367
6 *933:D *836:A0 0.00014183
7 *933:D *838:A1 1.76204e-05
8 *933:D *839:A0 4.87669e-06
9 *933:D *842:S 0
*RES
1 *840:X *933:D 34.3545 
*END

*D_NET *40 0.00238561
*CONN
*I *934:D I *D sky130_fd_sc_hd__dfxtp_2
*I *843:X O *D sky130_fd_sc_hd__or2_2
*CAP
1 *934:D 0.000764573
2 *843:X 0.000764573
3 *934:D *835:A1 0.00038501
4 *934:D *836:A0 0.000197991
5 *934:D *842:A0 5.10822e-05
6 *934:D *842:A1 8.55724e-05
7 *934:D *843:A 5.65955e-05
8 *934:D *843:B 2.1768e-05
9 *934:D *82:106 0
10 *934:D *162:10 5.84454e-05
*RES
1 *843:X *934:D 43.2116 
*END

*D_NET *41 0.000410876
*CONN
*I *935:D I *D sky130_fd_sc_hd__dfxtp_2
*I *846:X O *D sky130_fd_sc_hd__or2_2
*CAP
1 *935:D 0.000141358
2 *846:X 0.000141358
3 *935:D *845:A0 0.000128161
4 *935:D *845:A1 0
5 *935:D *163:10 0
*RES
1 *846:X *935:D 30.2295 
*END

*D_NET *42 0.000469945
*CONN
*I *936:D I *D sky130_fd_sc_hd__dfxtp_2
*I *849:X O *D sky130_fd_sc_hd__or2_2
*CAP
1 *936:D 0.000151983
2 *849:X 0.000151983
3 *936:D *849:B 6.26559e-05
4 *936:D *144:35 0
5 *936:D *144:44 0.000103323
*RES
1 *849:X *936:D 30.8366 
*END

*D_NET *43 0.000715589
*CONN
*I *937:D I *D sky130_fd_sc_hd__dfxtp_2
*I *852:X O *D sky130_fd_sc_hd__or2_2
*CAP
1 *937:D 0.000272723
2 *852:X 0.000272723
3 *937:D *144:27 0.000115756
4 *937:D *144:31 5.43865e-05
*RES
1 *852:X *937:D 22.8545 
*END

*D_NET *44 0.000524295
*CONN
*I *938:D I *D sky130_fd_sc_hd__dfxtp_2
*I *855:X O *D sky130_fd_sc_hd__or2_2
*CAP
1 *938:D 0.000214213
2 *855:X 0.000214213
3 *938:D *938:CLK 9.58689e-05
*RES
1 *855:X *938:D 22.475 
*END

*D_NET *45 0.000614131
*CONN
*I *939:D I *D sky130_fd_sc_hd__dfxtp_2
*I *858:X O *D sky130_fd_sc_hd__or2_2
*CAP
1 *939:D 0.000204334
2 *858:X 0.000204334
3 *939:D *858:B 1.15281e-05
4 *939:D *939:CLK 0.000122188
5 *939:D *116:37 5.52302e-05
6 *939:D *121:16 1.65169e-05
*RES
1 *858:X *939:D 21.8723 
*END

*D_NET *46 0.000837713
*CONN
*I *940:D I *D sky130_fd_sc_hd__dfxtp_2
*I *859:X O *D sky130_fd_sc_hd__a21o_2
*CAP
1 *940:D 0.000169675
2 *859:X 0.000169675
3 *940:D *859:A1 3.2534e-05
4 *940:D *859:A2 0
5 *940:D *146:14 0.000277555
6 *940:D *150:28 5.33005e-05
7 *940:D *150:32 3.17148e-05
8 *940:D *150:52 0.00010326
*RES
1 *859:X *940:D 31.8723 
*END

*D_NET *47 0.00514477
*CONN
*I *908:C1 I *D sky130_fd_sc_hd__o211a_2
*I *906:A I *D sky130_fd_sc_hd__and3_2
*I *898:C I *D sky130_fd_sc_hd__and3b_2
*I *887:Y O *D sky130_fd_sc_hd__nor2_2
*CAP
1 *908:C1 0.000902573
2 *906:A 0.000420393
3 *898:C 0.000201107
4 *887:Y 0.0010961
5 *47:12 0.000815023
6 *906:A *867:B 0.00010096
7 *906:A *896:B 8.37135e-05
8 *906:A *919:CLK 0.000142856
9 *906:A *133:26 4.00276e-06
10 *906:A *133:30 0.000100823
11 *906:A *147:78 0.000573176
12 *908:C1 *875:C 2.11419e-05
13 *908:C1 *906:B 0
14 *908:C1 *908:B1 2.34337e-05
15 *908:C1 *51:50 2.21972e-05
16 *47:12 *887:B 5.71472e-05
17 *47:12 *897:A2 4.43046e-05
18 *47:12 *899:A1 0
19 *47:12 *900:A1 0
20 *47:12 *902:D 6.05161e-06
21 *47:12 *916:CLK 9.91086e-05
22 *47:12 *51:50 0.000100009
23 *47:12 *112:14 1.02821e-05
24 *47:12 *134:33 9.71197e-05
25 *916:D *898:C 0.0001399
26 *916:D *906:A 8.33504e-05
*RES
1 *887:Y *47:12 23.0143 
2 *47:12 *898:C 11.8491 
3 *47:12 *906:A 28.1036 
4 *887:Y *908:C1 36.9817 
*END

*D_NET *48 0.000785036
*CONN
*I *890:A I *D sky130_fd_sc_hd__nor2_2
*I *888:Y O *D sky130_fd_sc_hd__a21oi_2
*CAP
1 *890:A 0.000250783
2 *888:Y 0.000250783
3 *890:A *888:A2 3.14193e-05
4 *890:A *890:B 8.98658e-05
5 *890:A *146:33 0.000148851
6 *890:A *150:69 1.33343e-05
7 *4:12 *890:A 0
*RES
1 *888:Y *890:A 32.8321 
*END

*D_NET *49 0.00121426
*CONN
*I *890:B I *D sky130_fd_sc_hd__nor2_2
*I *889:X O *D sky130_fd_sc_hd__a311o_2
*CAP
1 *890:B 0.00047393
2 *889:X 0.00047393
3 *890:B *888:A2 0.000120236
4 *890:B *888:B1 5.62995e-05
5 *890:A *890:B 8.98658e-05
6 *4:12 *890:B 0
*RES
1 *889:X *890:B 34.6 
*END

*D_NET *50 0.00123879
*CONN
*I *893:C I *D sky130_fd_sc_hd__and3b_2
*I *891:X O *D sky130_fd_sc_hd__a31o_2
*CAP
1 *893:C 0.000447764
2 *891:X 0.000447764
3 *893:C *873:C 1.64343e-05
4 *893:C *873:D_N 0
5 *893:C *891:B1 1.15418e-05
6 *893:C *893:A_N 0
7 *893:C *123:60 2.47724e-05
8 *893:C *123:75 1.83169e-05
9 *893:C *146:97 0.00017309
10 *914:D *893:C 9.91086e-05
*RES
1 *891:X *893:C 34.2652 
*END

*D_NET *51 0.00911268
*CONN
*I *895:A2 I *D sky130_fd_sc_hd__a21oi_2
*I *894:A2 I *D sky130_fd_sc_hd__o21ai_2
*I *897:A2 I *D sky130_fd_sc_hd__a21o_2
*I *902:D I *D sky130_fd_sc_hd__and4_2
*I *901:A3 I *D sky130_fd_sc_hd__a31o_2
*I *896:C I *D sky130_fd_sc_hd__and3_2
*I *893:A_N I *D sky130_fd_sc_hd__and3b_2
*I *892:X O *D sky130_fd_sc_hd__and4_2
*CAP
1 *895:A2 0.000250881
2 *894:A2 0
3 *897:A2 0.000175952
4 *902:D 5.9833e-05
5 *901:A3 0.00063707
6 *896:C 0
7 *893:A_N 0.000192009
8 *892:X 0
9 *51:50 0.000845271
10 *51:48 0.000338617
11 *51:39 0.00079874
12 *51:29 0.00116791
13 *51:8 0.000635478
14 *51:6 0.000310885
15 *893:A_N *873:B 0.000173377
16 *893:A_N *873:C 5.65955e-05
17 *893:A_N *873:D_N 0.000235624
18 *893:A_N *893:B 7.92229e-06
19 *893:A_N *894:B1 1.17921e-05
20 *893:A_N *120:163 6.7848e-05
21 *895:A2 *892:D 3.22304e-05
22 *897:A2 *897:B1 0.000117903
23 *897:A2 *898:B 0
24 *897:A2 *916:CLK 1.59782e-05
25 *897:A2 *133:30 0.000220441
26 *901:A3 *901:A2 0.000189778
27 *901:A3 *948:A 8.90199e-05
28 *901:A3 *57:14 0
29 *901:A3 *112:14 0
30 *901:A3 *121:94 0
31 *901:A3 *147:10 0
32 *902:D *875:C 0.000232399
33 *902:D *112:14 0.000272371
34 *902:D *134:33 2.77289e-05
35 *51:8 *873:B 3.06511e-05
36 *51:8 *892:B 7.54868e-05
37 *51:8 *892:D 2.06178e-05
38 *51:8 *895:B1 0
39 *51:8 *915:CLK 0
40 *51:29 *873:A 1.74352e-05
41 *51:29 *894:B1 0.000247478
42 *51:29 *895:B1 0.000186669
43 *51:29 *917:CLK 0
44 *51:29 *131:6 0.000218045
45 *51:29 *131:8 5.33005e-05
46 *51:39 *867:B 1.97695e-05
47 *51:39 *917:CLK 0.000118419
48 *51:39 *53:8 0.000319768
49 *51:39 *134:8 0.000229456
50 *51:39 *147:78 3.00323e-05
51 *51:48 *134:8 1.39726e-05
52 *51:48 *147:78 5.52238e-05
53 *51:50 *867:A 1.8791e-05
54 *51:50 *875:C 1.721e-05
55 *51:50 *106:12 0
56 *51:50 *132:47 0
57 *51:50 *133:30 9.25014e-06
58 *51:50 *134:12 8.78763e-05
59 *893:C *893:A_N 0
60 *908:C1 *51:50 2.21972e-05
61 *915:D *895:A2 0
62 *917:D *51:39 7.01199e-06
63 *47:12 *897:A2 4.43046e-05
64 *47:12 *902:D 6.05161e-06
65 *47:12 *51:50 0.000100009
*RES
1 *892:X *51:6 13.8 
2 *51:6 *51:8 1.33929 
3 *51:8 *893:A_N 18.6214 
4 *51:8 *51:29 12.0714 
5 *51:29 *51:39 13.4286 
6 *51:39 *896:C 9.3 
7 *51:39 *51:48 5.03571 
8 *51:48 *51:50 3.16071 
9 *51:50 *901:A3 25.2107 
10 *51:50 *902:D 16.8 
11 *51:48 *897:A2 18.4786 
12 *51:29 *894:A2 9.3 
13 *51:6 *895:A2 18.0321 
*END

*D_NET *52 0.000938197
*CONN
*I *895:B1 I *D sky130_fd_sc_hd__a21oi_2
*I *894:Y O *D sky130_fd_sc_hd__o21ai_2
*CAP
1 *895:B1 0.000259367
2 *894:Y 0.000259367
3 *895:B1 *873:A 2.44318e-05
4 *895:B1 *892:D 0
5 *895:B1 *894:A1 0
6 *895:B1 *894:B1 0.000144773
7 *895:B1 *132:21 0
8 *915:D *895:B1 6.35892e-05
9 *51:8 *895:B1 0
10 *51:29 *895:B1 0.000186669
*RES
1 *894:Y *895:B1 33.7429 
*END

*D_NET *53 0.00177693
*CONN
*I *898:A_N I *D sky130_fd_sc_hd__and3b_2
*I *900:A2 I *D sky130_fd_sc_hd__o21ba_2
*I *899:A2 I *D sky130_fd_sc_hd__a211o_2
*I *896:X O *D sky130_fd_sc_hd__and3_2
*CAP
1 *898:A_N 0
2 *900:A2 8.02871e-05
3 *899:A2 0.000121673
4 *896:X 6.7836e-05
5 *53:25 0.000217825
6 *53:8 0.000327047
7 *899:A2 *899:A1 4.81157e-05
8 *899:A2 *900:A1 7.252e-05
9 *899:A2 *900:B1_N 0
10 *900:A2 *900:A1 5.71472e-05
11 *53:8 *917:CLK 0.00040279
12 *53:25 *900:A1 6.19181e-05
13 *916:D *53:25 0
14 *917:D *53:25 0
15 *51:39 *53:8 0.000319768
*RES
1 *896:X *53:8 17.6214 
2 *53:8 *899:A2 16.6571 
3 *53:8 *53:25 7.10714 
4 *53:25 *900:A2 11.0857 
5 *53:25 *898:A_N 9.3 
*END

*D_NET *54 0.000382057
*CONN
*I *898:B I *D sky130_fd_sc_hd__and3b_2
*I *897:X O *D sky130_fd_sc_hd__a21o_2
*CAP
1 *898:B 0.000170753
2 *897:X 0.000170753
3 *898:B *132:32 4.0552e-05
4 *897:A2 *898:B 0
*RES
1 *897:X *898:B 29.9929 
*END

*D_NET *55 0.000871071
*CONN
*I *900:B1_N I *D sky130_fd_sc_hd__o21ba_2
*I *899:X O *D sky130_fd_sc_hd__a211o_2
*CAP
1 *900:B1_N 0.000343285
2 *899:X 0.000343285
3 *900:B1_N *894:A1 0
4 *900:B1_N *900:A1 0
5 *900:B1_N *112:14 5.70551e-05
6 *900:B1_N *132:21 0
7 *899:A2 *900:B1_N 0
8 *917:D *900:B1_N 0.000127446
*RES
1 *899:X *900:B1_N 33.4393 
*END

*D_NET *56 0.000749117
*CONN
*I *903:C I *D sky130_fd_sc_hd__and3b_2
*I *901:X O *D sky130_fd_sc_hd__a31o_2
*CAP
1 *903:C 0.000230751
2 *901:X 0.000230751
3 *903:C *876:D_N 0
4 *903:C *901:A1 0
5 *903:C *903:B 3.69047e-06
6 *903:C *112:14 0.000132592
7 *918:D *903:C 0.000151333
*RES
1 *901:X *903:C 32.7473 
*END

*D_NET *57 0.00718476
*CONN
*I *904:B I *D sky130_fd_sc_hd__or2_2
*I *905:B I *D sky130_fd_sc_hd__nand2_2
*I *909:A2 I *D sky130_fd_sc_hd__a21o_2
*I *806:D I *D sky130_fd_sc_hd__and4_2
*I *903:A_N I *D sky130_fd_sc_hd__and3b_2
*I *803:D I *D sky130_fd_sc_hd__and4_2
*I *902:X O *D sky130_fd_sc_hd__and4_2
*CAP
1 *904:B 0
2 *905:B 0.000316704
3 *909:A2 0.000226386
4 *806:D 0.000178973
5 *903:A_N 0.000317738
6 *803:D 0
7 *902:X 0.000942487
8 *57:48 0.000584548
9 *57:28 0.000498602
10 *57:20 0.000715751
11 *57:16 0.000672402
12 *57:14 0.000942487
13 *806:D *804:C 0.00017508
14 *806:D *806:C 1.3142e-05
15 *806:D *872:C 2.89114e-05
16 *806:D *909:A1 3.60103e-05
17 *806:D *138:14 0.000222878
18 *903:A_N *803:B 1.33343e-05
19 *903:A_N *903:B 0.000255835
20 *905:B *136:14 2.44318e-05
21 *905:B *136:20 0.000208014
22 *905:B *136:31 3.75052e-05
23 *905:B *137:29 1.16789e-05
24 *909:A2 *804:C 0
25 *57:14 *904:A 2.89114e-05
26 *57:14 *906:B 0.000228558
27 *57:14 *112:14 7.83659e-05
28 *57:14 *147:10 2.19353e-05
29 *57:20 *869:A 6.77337e-05
30 *57:20 *909:B1 6.10271e-05
31 *57:20 *136:31 2.8266e-06
32 *57:20 *136:33 0.000199576
33 *57:20 *138:38 4.11218e-05
34 *57:28 *869:A 9.60337e-06
35 *57:28 *903:B 2.22043e-05
36 *901:A3 *57:14 0
*RES
1 *902:X *57:14 30.05 
2 *57:14 *57:16 4.5 
3 *57:16 *57:20 11.8832 
4 *57:20 *57:28 8.52205 
5 *57:28 *803:D 9.3 
6 *57:28 *903:A_N 15.7464 
7 *57:20 *57:48 0.335267 
8 *57:48 *806:D 22.2725 
9 *57:48 *909:A2 18.5365 
10 *57:16 *905:B 19.0143 
11 *57:14 *904:B 9.3 
*END

*D_NET *58 0.000866108
*CONN
*I *906:B I *D sky130_fd_sc_hd__and3_2
*I *904:X O *D sky130_fd_sc_hd__or2_2
*CAP
1 *906:B 0.000318775
2 *904:X 0.000318775
3 *906:B *908:B1 0
4 *906:B *147:61 0
5 *908:C1 *906:B 0
6 *57:14 *906:B 0.000228558
*RES
1 *904:X *906:B 33.5464 
*END

*D_NET *59 0.00212904
*CONN
*I *908:A2 I *D sky130_fd_sc_hd__o211a_2
*I *907:B I *D sky130_fd_sc_hd__nand2_2
*I *906:C I *D sky130_fd_sc_hd__and3_2
*I *905:Y O *D sky130_fd_sc_hd__nand2_2
*CAP
1 *908:A2 0
2 *907:B 3.82418e-05
3 *906:C 0.000115664
4 *905:Y 6.25485e-05
5 *59:16 0.000451462
6 *59:8 0.000360104
7 *906:C *908:B1 0
8 *906:C *920:CLK 1.92905e-05
9 *59:8 *908:A1 1.28809e-05
10 *59:8 *136:20 0.000121894
11 *59:8 *137:29 0.00014186
12 *59:16 *908:A1 0.000340066
13 *59:16 *908:B1 0.000395283
14 *59:16 *920:CLK 6.97409e-05
*RES
1 *905:Y *59:8 11.9071 
2 *59:8 *59:16 15.9643 
3 *59:16 *906:C 19.8714 
4 *59:16 *907:B 10.0321 
5 *59:8 *908:A2 9.3 
*END

*D_NET *60 0.000927236
*CONN
*I *908:B1 I *D sky130_fd_sc_hd__o211a_2
*I *907:Y O *D sky130_fd_sc_hd__nand2_2
*CAP
1 *908:B1 0.000234391
2 *907:Y 0.000234391
3 *908:B1 *908:A1 1.08359e-05
4 *908:B1 *920:CLK 2.89016e-05
5 *906:B *908:B1 0
6 *906:C *908:B1 0
7 *908:C1 *908:B1 2.34337e-05
8 *59:16 *908:B1 0.000395283
*RES
1 *907:Y *908:B1 32.8143 
*END

*D_NET *61 0.00113229
*CONN
*I *804:C I *D sky130_fd_sc_hd__and3b_2
*I *909:X O *D sky130_fd_sc_hd__a21o_2
*CAP
1 *804:C 0.000244013
2 *909:X 0.000244013
3 *804:C *869:A 0
4 *804:C *872:C 8.9299e-05
5 *804:C *909:B1 3.92437e-05
6 *804:C *64:10 0.000166237
7 *804:C *120:102 0
8 *804:C *138:38 9.60808e-05
9 *806:D *804:C 0.00017508
10 *909:A2 *804:C 0
11 *921:D *804:C 7.8327e-05
*RES
1 *909:X *804:C 34.4482 
*END

*D_NET *62 0.0042483
*CONN
*I *804:A_N I *D sky130_fd_sc_hd__and3b_2
*I *805:B I *D sky130_fd_sc_hd__or2_2
*I *808:A3 I *D sky130_fd_sc_hd__a31o_2
*I *811:D I *D sky130_fd_sc_hd__and4_2
*I *803:X O *D sky130_fd_sc_hd__and4_2
*CAP
1 *804:A_N 0
2 *805:B 0.000287782
3 *808:A3 0
4 *811:D 0.000301937
5 *803:X 0.000128087
6 *62:18 0.000554555
7 *62:12 0.00095523
8 *62:8 0.000542917
9 *805:B *125:10 0.000226279
10 *811:D *808:B1 7.58841e-05
11 *811:D *929:CLK 2.85234e-05
12 *62:8 *872:D 0.00017461
13 *62:8 *903:B 0.000271958
14 *62:8 *120:102 0
15 *62:12 *872:D 5.80706e-06
16 *62:12 *64:10 0.000262485
17 *62:12 *64:12 0.00015826
18 *62:12 *113:10 0
19 *62:12 *120:55 9.97556e-05
20 *62:12 *120:102 0
21 *62:18 *809:B1_N 5.49995e-05
22 *62:18 *923:CLK 5.49995e-05
23 *923:D *805:B 5.46383e-06
24 *923:D *62:18 5.87643e-05
*RES
1 *803:X *62:8 18.175 
2 *62:8 *62:12 14.9464 
3 *62:12 *62:18 3.96429 
4 *62:18 *811:D 22.6036 
5 *62:18 *808:A3 9.3 
6 *62:12 *805:B 14.7821 
7 *62:8 *804:A_N 13.8 
*END

*D_NET *63 0.000909398
*CONN
*I *807:C I *D sky130_fd_sc_hd__and3b_2
*I *805:X O *D sky130_fd_sc_hd__or2_2
*CAP
1 *807:C 0.000385733
2 *805:X 0.000385733
3 *807:C *806:A 0.000123903
4 *922:D *807:C 1.40306e-05
*RES
1 *805:X *807:C 34.4839 
*END

*D_NET *64 0.00725077
*CONN
*I *807:A_N I *D sky130_fd_sc_hd__and3b_2
*I *809:A2 I *D sky130_fd_sc_hd__o21ba_2
*I *816:A2 I *D sky130_fd_sc_hd__a31o_2
*I *817:C I *D sky130_fd_sc_hd__nand4_2
*I *820:C I *D sky130_fd_sc_hd__nand4_2
*I *810:A2 I *D sky130_fd_sc_hd__a21o_2
*I *814:A2 I *D sky130_fd_sc_hd__a31o_2
*I *819:A3 I *D sky130_fd_sc_hd__a41o_2
*I *806:X O *D sky130_fd_sc_hd__and4_2
*CAP
1 *807:A_N 0
2 *809:A2 3.28385e-05
3 *816:A2 0.000109379
4 *817:C 2.61224e-05
5 *820:C 1.06417e-05
6 *810:A2 2.03441e-05
7 *814:A2 0.000160706
8 *819:A3 9.25227e-05
9 *806:X 0.000368707
10 *64:43 0.00026214
11 *64:41 0.000110853
12 *64:26 0.00040611
13 *64:16 0.000485983
14 *64:14 0.000480589
15 *64:12 0.00044936
16 *64:10 0.000579413
17 *809:A2 *124:14 0.000183711
18 *809:A2 *125:38 9.84673e-05
19 *809:A2 *125:46 9.84729e-05
20 *810:A2 *820:D 5.7661e-06
21 *814:A2 *810:B1 9.90431e-05
22 *814:A2 *812:B 0.000102207
23 *814:A2 *814:A3 2.59355e-05
24 *814:A2 *819:A2 0
25 *814:A2 *820:D 0.000176548
26 *814:A2 *126:21 3.34295e-05
27 *814:A2 *126:32 0.000128161
28 *816:A2 *816:A3 5.23822e-05
29 *819:A3 *819:A4 5.41797e-06
30 *819:A3 *821:C1 0.000125724
31 *819:A3 *874:A 0.000144773
32 *819:A3 *927:CLK 0.00022497
33 *819:A3 *120:57 3.34366e-05
34 *819:A3 *128:18 2.78608e-05
35 *820:C *820:B 5.7661e-06
36 *820:C *820:D 3.99614e-06
37 *64:10 *872:C 5.30707e-05
38 *64:10 *120:102 0.000265976
39 *64:12 *120:102 5.99221e-05
40 *64:12 *125:10 3.79336e-05
41 *64:14 *817:B 5.60463e-06
42 *64:14 *125:10 6.14702e-06
43 *64:14 *125:12 9.61574e-05
44 *64:16 *816:A3 0
45 *64:16 *817:B 8.93765e-05
46 *64:26 *817:B 2.8266e-06
47 *64:26 *819:A4 0
48 *64:26 *820:A 3.9052e-05
49 *64:26 *820:B 5.74499e-06
50 *64:26 *821:A2 0.000227539
51 *64:26 *926:CLK 0.000266473
52 *64:26 *128:36 0
53 *64:43 *812:B 8.56752e-05
54 *64:43 *820:B 4.16984e-05
55 *64:43 *820:D 5.17614e-05
56 *804:C *64:10 0.000166237
57 *922:D *64:12 0
58 *926:D *817:C 2.89016e-05
59 *926:D *64:26 0.000128146
60 *62:12 *64:10 0.000262485
61 *62:12 *64:12 0.00015826
*RES
1 *806:X *64:10 22.9964 
2 *64:10 *64:12 5.28571 
3 *64:12 *64:14 4.375 
4 *64:14 *64:16 3.46429 
5 *64:16 *64:26 11.0179 
6 *64:26 *819:A3 21.6036 
7 *64:26 *64:41 0.428571 
8 *64:41 *64:43 2.17857 
9 *64:43 *814:A2 22.9607 
10 *64:43 *810:A2 9.72857 
11 *64:41 *820:C 9.72857 
12 *64:16 *817:C 14.3357 
13 *64:14 *816:A2 15.1571 
14 *64:12 *809:A2 15.5679 
15 *64:10 *807:A_N 13.8 
*END

*D_NET *65 0.000419627
*CONN
*I *809:B1_N I *D sky130_fd_sc_hd__o21ba_2
*I *808:X O *D sky130_fd_sc_hd__a31o_2
*CAP
1 *809:B1_N 0.000109469
2 *808:X 0.000109469
3 *809:B1_N *923:CLK 5.49657e-05
4 *809:B1_N *113:10 7.39178e-05
5 *809:B1_N *145:91 1.6806e-05
6 *62:18 *809:B1_N 5.49995e-05
*RES
1 *808:X *809:B1_N 30.0821 
*END

*D_NET *66 0.00105057
*CONN
*I *812:C I *D sky130_fd_sc_hd__and3b_2
*I *810:X O *D sky130_fd_sc_hd__a21o_2
*CAP
1 *812:C 0.000327013
2 *810:X 0.000327013
3 *812:C *812:A_N 5.62995e-05
4 *812:C *812:B 8.87627e-05
5 *812:C *819:A2 0
6 *812:C *874:C 2.07382e-05
7 *812:C *874:D 2.59355e-05
8 *812:C *126:10 5.66157e-05
9 *812:C *126:21 0.000148196
*RES
1 *810:X *812:C 33.1937 
*END

*D_NET *67 0.00225512
*CONN
*I *815:A2 I *D sky130_fd_sc_hd__o21ba_2
*I *812:A_N I *D sky130_fd_sc_hd__and3b_2
*I *811:X O *D sky130_fd_sc_hd__and4_2
*CAP
1 *815:A2 0
2 *812:A_N 0.000242731
3 *811:X 0.000526791
4 *67:10 0.000769523
5 *812:A_N *812:B 3.14193e-05
6 *812:A_N *874:C 5.98631e-05
7 *812:A_N *126:21 0
8 *812:A_N *127:21 0.000134504
9 *812:A_N *145:16 0
10 *67:10 *811:A 0.000141941
11 *67:10 *813:A 0.000198142
12 *67:10 *929:CLK 6.07474e-05
13 *67:10 *127:21 5.80706e-06
14 *67:10 *143:29 2.73533e-05
15 *67:10 *145:16 0
16 *812:C *812:A_N 5.62995e-05
17 *924:D *812:A_N 0
18 *928:D *67:10 0
*RES
1 *811:X *67:10 23.6036 
2 *67:10 *812:A_N 19.7286 
3 *67:10 *815:A2 13.8 
*END

*D_NET *68 0.00449734
*CONN
*I *817:D I *D sky130_fd_sc_hd__nand4_2
*I *816:A3 I *D sky130_fd_sc_hd__a31o_2
*I *819:A4 I *D sky130_fd_sc_hd__a41o_2
*I *814:A3 I *D sky130_fd_sc_hd__a31o_2
*I *820:D I *D sky130_fd_sc_hd__nand4_2
*I *813:X O *D sky130_fd_sc_hd__and2_2
*CAP
1 *817:D 3.56013e-05
2 *816:A3 0.000236544
3 *819:A4 0.000364946
4 *814:A3 2.98436e-05
5 *820:D 0.000184935
6 *813:X 0.000131375
7 *68:34 0.00060149
8 *68:32 0.000278146
9 *68:23 0.000272388
10 *68:8 0.00031631
11 *816:A3 *818:B 0.000145197
12 *816:A3 *120:55 5.23822e-05
13 *816:A3 *145:61 0.000213651
14 *817:D *818:C 8.66063e-05
15 *819:A4 *820:A 9.87983e-06
16 *819:A4 *874:A 3.77662e-05
17 *819:A4 *927:CLK 0.000201704
18 *819:A4 *145:61 0.000196269
19 *820:D *810:A1 9.90367e-05
20 *820:D *810:B1 5.71472e-05
21 *820:D *814:B1 1.19309e-05
22 *820:D *819:A2 0
23 *820:D *820:B 4.27935e-05
24 *820:D *125:48 0
25 *820:D *125:50 0
26 *820:D *126:32 2.82057e-05
27 *68:8 *814:B1 0.000115346
28 *68:8 *126:32 0.000174451
29 *68:32 *814:A1 0.000102197
30 *68:32 *818:A 5.33005e-05
31 *68:32 *818:C 9.60875e-05
32 *810:A2 *820:D 5.7661e-06
33 *814:A2 *814:A3 2.59355e-05
34 *814:A2 *820:D 0.000176548
35 *816:A2 *816:A3 5.23822e-05
36 *819:A3 *819:A4 5.41797e-06
37 *820:C *820:D 3.99614e-06
38 *64:16 *816:A3 0
39 *64:26 *819:A4 0
40 *64:43 *820:D 5.17614e-05
*RES
1 *813:X *68:8 18.175 
2 *68:8 *820:D 18.7643 
3 *68:8 *68:23 4.5 
4 *68:23 *814:A3 9.83571 
5 *68:23 *68:32 4.64286 
6 *68:32 *68:34 4.5 
7 *68:34 *819:A4 20.0857 
8 *68:34 *816:A3 20.0679 
9 *68:32 *817:D 10.2464 
*END

*D_NET *69 0.000404
*CONN
*I *815:B1_N I *D sky130_fd_sc_hd__o21ba_2
*I *814:X O *D sky130_fd_sc_hd__a31o_2
*CAP
1 *815:B1_N 0.000192355
2 *814:X 0.000192355
3 *925:D *815:B1_N 1.92905e-05
*RES
1 *814:X *815:B1_N 21.6 
*END

*D_NET *70 0.000819688
*CONN
*I *818:B I *D sky130_fd_sc_hd__and3_2
*I *816:X O *D sky130_fd_sc_hd__a31o_2
*CAP
1 *818:B 0.000226383
2 *816:X 0.000226383
3 *818:B *120:55 0.000119954
4 *818:B *145:61 0.000101771
5 *816:A3 *818:B 0.000145197
*RES
1 *816:X *818:B 32.35 
*END

*D_NET *71 0.000554231
*CONN
*I *818:C I *D sky130_fd_sc_hd__and3_2
*I *817:Y O *D sky130_fd_sc_hd__nand4_2
*CAP
1 *818:C 0.000114341
2 *817:Y 0.000114341
3 *817:D *818:C 8.66063e-05
4 *926:D *818:C 0.000142856
5 *68:32 *818:C 9.60875e-05
*RES
1 *817:Y *818:C 21.5107 
*END

*D_NET *72 0.000496
*CONN
*I *821:B1 I *D sky130_fd_sc_hd__o211a_2
*I *819:X O *D sky130_fd_sc_hd__a41o_2
*CAP
1 *821:B1 0.000104819
2 *819:X 0.000104819
3 *821:B1 *821:A2 0.000150611
4 *821:B1 *927:CLK 3.67142e-05
5 *821:B1 *129:8 9.90367e-05
*RES
1 *819:X *821:B1 30.4929 
*END

*D_NET *73 0.00151979
*CONN
*I *821:A2 I *D sky130_fd_sc_hd__o211a_2
*I *820:Y O *D sky130_fd_sc_hd__nand4_2
*CAP
1 *821:A2 0.000438105
2 *820:Y 0.000438105
3 *821:A2 *820:A 0
4 *821:A2 *821:A1 0.000130277
5 *821:A2 *926:CLK 2.44318e-05
6 *821:A2 *128:18 7.6644e-05
7 *821:B1 *821:A2 0.000150611
8 *926:D *821:A2 3.40781e-05
9 *64:26 *821:A2 0.000227539
*RES
1 *820:Y *821:A2 35.4929 
*END

*D_NET *74 0.000923672
*CONN
*I *823:B I *D sky130_fd_sc_hd__nor2_2
*I *822:Y O *D sky130_fd_sc_hd__xnor2_2
*CAP
1 *823:B 0.000243467
2 *822:Y 0.000243467
3 *823:B *826:C 2.12559e-05
4 *823:B *121:50 0.000313706
5 *929:D *823:B 0.000101777
*RES
1 *822:Y *823:B 32.9214 
*END

*D_NET *75 0.000755225
*CONN
*I *859:A2 I *D sky130_fd_sc_hd__a21o_2
*I *824:Y O *D sky130_fd_sc_hd__nand2_2
*CAP
1 *859:A2 0.000122497
2 *824:Y 0.000122497
3 *859:A2 *857:A1 6.74815e-05
4 *859:A2 *859:A1 0.000100969
5 *859:A2 *121:16 0.000341781
6 *940:D *859:A2 0
*RES
1 *824:Y *859:A2 31.975 
*END

*D_NET *76 0.0008644
*CONN
*I *827:C I *D sky130_fd_sc_hd__and3b_2
*I *825:X O *D sky130_fd_sc_hd__a31o_2
*CAP
1 *827:C 0.000362439
2 *825:X 0.000362439
3 *827:C *822:B 2.15363e-05
4 *827:C *825:A2 1.02504e-05
5 *827:C *826:A 4.84321e-05
6 *827:C *120:30 5.93027e-05
*RES
1 *825:X *827:C 32.417 
*END

*D_NET *77 0.000915897
*CONN
*I *827:A_N I *D sky130_fd_sc_hd__and3b_2
*I *831:A2 I *D sky130_fd_sc_hd__o21a_2
*I *826:X O *D sky130_fd_sc_hd__and3_2
*CAP
1 *827:A_N 0
2 *831:A2 0.000129333
3 *826:X 0.00019788
4 *77:8 0.000327212
5 *831:A2 *826:A 0.00010096
6 *831:A2 *831:A1 1.02504e-05
7 *831:A2 *121:50 0
8 *831:A2 *143:11 7.73662e-05
9 *77:8 *826:A 3.4855e-05
10 *77:8 *120:43 3.80414e-05
*RES
1 *826:X *77:8 11.9071 
2 *77:8 *831:A2 21.1929 
3 *77:8 *827:A_N 9.3 
*END

*D_NET *78 0.00135487
*CONN
*I *829:D I *D sky130_fd_sc_hd__nor4_2
*I *828:Y O *D sky130_fd_sc_hd__nand2_2
*CAP
1 *829:D 0.000247287
2 *828:Y 0.000247287
3 *829:D *828:A 0.000118903
4 *829:D *828:B 0.000139913
5 *829:D *830:B 3.77662e-05
6 *829:D *831:A1 0.000266092
7 *829:D *99:10 5.52238e-05
8 *829:D *116:132 2.26327e-05
9 *829:D *143:65 0.000219767
*RES
1 *828:Y *829:D 35.0821 
*END

*D_NET *79 0.00213834
*CONN
*I *830:B I *D sky130_fd_sc_hd__nor2_2
*I *832:B I *D sky130_fd_sc_hd__xor2_2
*I *829:Y O *D sky130_fd_sc_hd__nor4_2
*CAP
1 *830:B 0.000186992
2 *832:B 0.000314443
3 *829:Y 0.000501434
4 *830:B *99:10 0.000108902
5 *832:B *832:A 6.1684e-05
6 *832:B *871:A 1.31516e-05
7 *832:B *871:C 0.000383288
8 *832:B *140:33 0.00026467
9 *832:B *140:46 0.000250201
10 *832:B *143:65 2.6655e-06
11 *829:D *830:B 3.77662e-05
12 *930:D *832:B 1.3142e-05
*RES
1 *829:Y *832:B 26.6214 
2 *829:Y *830:B 21.7607 
*END

*D_NET *80 0.000940985
*CONN
*I *831:B1 I *D sky130_fd_sc_hd__o21a_2
*I *830:Y O *D sky130_fd_sc_hd__nor2_2
*CAP
1 *831:B1 0.000192054
2 *830:Y 0.000192054
3 *831:B1 *831:A1 0.000320038
4 *831:B1 *121:50 0.000121606
5 *831:B1 *121:83 4.8936e-05
6 *831:B1 *139:34 6.62983e-05
*RES
1 *830:Y *831:B1 33.4393 
*END

*D_NET *81 0.00153803
*CONN
*I *833:C I *D sky130_fd_sc_hd__and3_2
*I *832:X O *D sky130_fd_sc_hd__xor2_2
*CAP
1 *833:C 0.000307959
2 *832:X 0.000307959
3 *833:C *832:A 0
4 *833:C *931:CLK 7.27966e-05
5 *833:C *110:20 0.000670252
6 *833:C *142:19 0
7 *931:D *833:C 0.000179061
*RES
1 *832:X *833:C 36.7429 
*END

*D_NET *82 0.0129683
*CONN
*I *839:S I *D sky130_fd_sc_hd__mux2_1
*I *842:S I *D sky130_fd_sc_hd__mux2_1
*I *836:S I *D sky130_fd_sc_hd__mux2_1
*I *854:S I *D sky130_fd_sc_hd__mux2_1
*I *851:S I *D sky130_fd_sc_hd__mux2_1
*I *845:S I *D sky130_fd_sc_hd__mux2_1
*I *848:S I *D sky130_fd_sc_hd__mux2_1
*I *857:B1 I *D sky130_fd_sc_hd__a32o_2
*I *834:X O *D sky130_fd_sc_hd__o31a_2
*CAP
1 *839:S 8.72026e-05
2 *842:S 0.000442937
3 *836:S 0
4 *854:S 0
5 *851:S 0.00011096
6 *845:S 0.000290449
7 *848:S 0.000198608
8 *857:B1 0.000188979
9 *834:X 0
10 *82:106 0.00136756
11 *82:95 0.00135788
12 *82:39 0.000609675
13 *82:37 0.000592421
14 *82:29 0.00065096
15 *82:6 0.000932694
16 *82:4 0.000974053
17 *839:S *835:A0 4.58194e-05
18 *842:S *835:A1 0
19 *842:S *838:A1 0
20 *842:S *839:A0 0.000126439
21 *845:S *845:A1 4.22908e-05
22 *845:S *846:B 1.92789e-05
23 *845:S *148:133 5.52302e-05
24 *848:S *844:A0 0
25 *848:S *846:A 0.000134748
26 *848:S *848:A0 0.000346639
27 *848:S *848:A1 1.92905e-05
28 *848:S *935:CLK 0
29 *848:S *164:8 0
30 *851:S *851:A0 1.26655e-05
31 *851:S *851:A1 2.11336e-05
32 *857:B1 *853:A0 0.000193118
33 *857:B1 *856:A1 9.90431e-05
34 *857:B1 *858:B 4.1331e-06
35 *857:B1 *100:10 9.77024e-05
36 *857:B1 *100:23 4.18895e-05
37 *857:B1 *148:30 4.04353e-05
38 *82:6 *100:23 9.90431e-05
39 *82:6 *100:32 0.000610989
40 *82:6 *100:45 0.000109263
41 *82:29 *853:A0 0
42 *82:29 *854:A0 0
43 *82:29 *854:A1 0
44 *82:29 *960:A 5.33334e-05
45 *82:29 *104:10 6.75007e-05
46 *82:29 *104:16 0
47 *82:37 *847:S 0.000260793
48 *82:37 *850:A0 7.89362e-05
49 *82:37 *854:A1 0.000216579
50 *82:37 *960:A 4.35452e-05
51 *82:37 *104:16 0.000368336
52 *82:37 *104:18 0.000126416
53 *82:37 *148:108 0.000175281
54 *82:39 *846:A 2.59004e-05
55 *82:39 *847:S 0.000175903
56 *82:39 *848:A0 0.000115474
57 *82:39 *144:35 0
58 *82:39 *148:108 0.000327111
59 *82:95 *836:A1 0.000100165
60 *82:95 *878:B1 0.000150449
61 *82:95 *878:C1 0.000129868
62 *82:95 *879:B 2.6269e-05
63 *82:95 *880:A2 2.38501e-05
64 *82:95 *100:45 3.42426e-05
65 *82:95 *100:69 8.43535e-06
66 *82:95 *115:41 9.41642e-05
67 *82:95 *148:45 0.000133793
68 *82:106 *822:B 0
69 *82:106 *836:A0 0
70 *82:106 *836:A1 4.17702e-05
71 *82:106 *839:A0 3.34366e-05
72 *82:106 *879:A 0.000141941
73 *82:106 *879:B 3.31535e-05
74 *82:106 *161:12 1.17968e-05
75 *933:D *842:S 0
76 *934:D *82:106 0
77 *4:18 *857:B1 4.63007e-05
*RES
1 *834:X *82:4 9.3 
2 *82:4 *82:6 9.57143 
3 *82:6 *857:B1 23.2554 
4 *82:6 *82:29 14.625 
5 *82:29 *82:37 15.8214 
6 *82:37 *82:39 4.67857 
7 *82:39 *848:S 19.6214 
8 *82:39 *845:S 18.8714 
9 *82:37 *851:S 16.1393 
10 *82:29 *854:S 9.3 
11 *82:4 *82:95 20 
12 *82:95 *836:S 9.3 
13 *82:95 *82:106 20.0714 
14 *82:106 *842:S 21.7821 
15 *82:106 *839:S 15.1571 
*END

*D_NET *83 0.00180786
*CONN
*I *836:A0 I *D sky130_fd_sc_hd__mux2_1
*I *835:X O *D sky130_fd_sc_hd__mux2_1
*CAP
1 *836:A0 0.000540962
2 *835:X 0.000540962
3 *836:A0 *835:S 7.32272e-05
4 *836:A0 *837:B 0
5 *836:A0 *148:47 9.48258e-05
6 *836:A0 *148:57 0.000131197
7 *836:A0 *162:10 8.68665e-05
8 *933:D *836:A0 0.00014183
9 *934:D *836:A0 0.000197991
10 *82:106 *836:A0 0
*RES
1 *835:X *836:A0 40.9214 
*END

*D_NET *84 0.00158983
*CONN
*I *837:B I *D sky130_fd_sc_hd__or2_2
*I *836:X O *D sky130_fd_sc_hd__mux2_1
*CAP
1 *837:B 0.000428152
2 *836:X 0.000428152
3 *837:B *104:43 0
4 *837:B *148:47 0.000281479
5 *837:B *148:57 0.000442013
6 *837:B *148:61 1.00332e-05
7 *836:A0 *837:B 0
8 *932:D *837:B 0
*RES
1 *836:X *837:B 37.3679 
*END

*D_NET *85 0.0012874
*CONN
*I *839:A0 I *D sky130_fd_sc_hd__mux2_1
*I *838:X O *D sky130_fd_sc_hd__mux2_1
*CAP
1 *839:A0 0.000407991
2 *838:X 0.000407991
3 *839:A0 *838:A1 0.000156038
4 *839:A0 *161:12 0.000150625
5 *842:S *839:A0 0.000126439
6 *933:D *839:A0 4.87669e-06
7 *82:106 *839:A0 3.34366e-05
*RES
1 *838:X *839:A0 34.1893 
*END

*D_NET *86 0.00109322
*CONN
*I *840:B I *D sky130_fd_sc_hd__or2_2
*I *839:X O *D sky130_fd_sc_hd__mux2_1
*CAP
1 *840:B 0.000353716
2 *839:X 0.000353716
3 *840:B *835:A0 0.000274294
4 *840:B *835:S 0.000111491
*RES
1 *839:X *840:B 23.6714 
*END

*D_NET *87 0.00117063
*CONN
*I *842:A0 I *D sky130_fd_sc_hd__mux2_1
*I *841:X O *D sky130_fd_sc_hd__mux2_1
*CAP
1 *842:A0 0.000249407
2 *841:X 0.000249407
3 *842:A0 *838:A0 9.90367e-05
4 *842:A0 *842:A1 0.000135506
5 *842:A0 *933:CLK 0.000354478
6 *842:A0 *162:10 3.17148e-05
7 *934:D *842:A0 5.10822e-05
*RES
1 *841:X *842:A0 33.3143 
*END

*D_NET *88 0.00014524
*CONN
*I *843:B I *D sky130_fd_sc_hd__or2_2
*I *842:X O *D sky130_fd_sc_hd__mux2_1
*CAP
1 *843:B 6.17362e-05
2 *842:X 6.17362e-05
3 *934:D *843:B 2.1768e-05
*RES
1 *842:X *843:B 19.5643 
*END

*D_NET *89 0.00107924
*CONN
*I *845:A0 I *D sky130_fd_sc_hd__mux2_1
*I *844:X O *D sky130_fd_sc_hd__mux2_1
*CAP
1 *845:A0 0.000428282
2 *844:X 0.000428282
3 *845:A0 *844:A0 0
4 *845:A0 *844:S 3.18676e-05
5 *845:A0 *845:A1 0
6 *845:A0 *846:A 0
7 *845:A0 *846:B 6.26466e-05
8 *845:A0 *935:CLK 0
9 *935:D *845:A0 0.000128161
*RES
1 *844:X *845:A0 35.2429 
*END

*D_NET *90 0.000395475
*CONN
*I *846:B I *D sky130_fd_sc_hd__or2_2
*I *845:X O *D sky130_fd_sc_hd__mux2_1
*CAP
1 *846:B 0.000140918
2 *845:X 0.000140918
3 *846:B *846:A 0
4 *846:B *935:CLK 3.17148e-05
5 *845:A0 *846:B 6.26466e-05
6 *845:S *846:B 1.92789e-05
*RES
1 *845:X *846:B 30.3857 
*END

*D_NET *91 0.00131076
*CONN
*I *848:A0 I *D sky130_fd_sc_hd__mux2_1
*I *847:X O *D sky130_fd_sc_hd__mux2_1
*CAP
1 *848:A0 0.000260582
2 *847:X 0.000260582
3 *848:A0 *847:A1 0.00014285
4 *848:A0 *849:B 0.000184635
5 *848:A0 *144:35 0
6 *848:S *848:A0 0.000346639
7 *82:39 *848:A0 0.000115474
*RES
1 *847:X *848:A0 34.85 
*END

*D_NET *92 0.000729541
*CONN
*I *849:B I *D sky130_fd_sc_hd__or2_2
*I *848:X O *D sky130_fd_sc_hd__mux2_1
*CAP
1 *849:B 0.000241125
2 *848:X 0.000241125
3 *849:B *144:35 0
4 *848:A0 *849:B 0.000184635
5 *936:D *849:B 6.26559e-05
*RES
1 *848:X *849:B 32.9214 
*END

*D_NET *93 0.000846187
*CONN
*I *851:A0 I *D sky130_fd_sc_hd__mux2_1
*I *850:X O *D sky130_fd_sc_hd__mux2_1
*CAP
1 *851:A0 0.000326147
2 *850:X 0.000326147
3 *851:A0 *851:A1 0.000143633
4 *851:A0 *165:8 3.75959e-05
5 *851:S *851:A0 1.26655e-05
*RES
1 *850:X *851:A0 32.8321 
*END

*D_NET *94 0.000677915
*CONN
*I *852:B I *D sky130_fd_sc_hd__or2_2
*I *851:X O *D sky130_fd_sc_hd__mux2_1
*CAP
1 *852:B 0.000288369
2 *851:X 0.000288369
3 *852:B *144:35 0.000101178
*RES
1 *851:X *852:B 31.5286 
*END

*D_NET *95 0.000514177
*CONN
*I *854:A0 I *D sky130_fd_sc_hd__mux2_1
*I *853:X O *D sky130_fd_sc_hd__mux2_1
*CAP
1 *854:A0 0.000147959
2 *853:X 0.000147959
3 *854:A0 *853:A1 0.0001399
4 *854:A0 *104:16 7.83587e-05
5 *82:29 *854:A0 0
*RES
1 *853:X *854:A0 29.9929 
*END

*D_NET *96 0.000704236
*CONN
*I *855:B I *D sky130_fd_sc_hd__or2_2
*I *854:X O *D sky130_fd_sc_hd__mux2_1
*CAP
1 *855:B 0.000320384
2 *854:X 0.000320384
3 *855:B *938:CLK 3.2923e-05
4 *855:B *960:A 3.05446e-05
5 *855:B *104:16 0
*RES
1 *854:X *855:B 32.0286 
*END

*D_NET *97 0.00149921
*CONN
*I *858:A I *D sky130_fd_sc_hd__or2_2
*I *856:X O *D sky130_fd_sc_hd__a31o_2
*CAP
1 *858:A 0.000462731
2 *856:X 0.000462731
3 *858:A *856:A2 0.000112688
4 *858:A *857:A1 0
5 *858:A *857:A2 4.97825e-05
6 *858:A *857:A3 0.000222885
7 *858:A *121:16 8.32242e-05
8 *858:A *149:16 0.000105163
*RES
1 *856:X *858:A 35.7964 
*END

*D_NET *98 0.000997067
*CONN
*I *858:B I *D sky130_fd_sc_hd__or2_2
*I *857:X O *D sky130_fd_sc_hd__a32o_2
*CAP
1 *858:B 0.000450055
2 *857:X 0.000450055
3 *858:B *939:CLK 8.12952e-05
4 *858:B *100:10 0
5 *858:B *167:12 0
6 *857:B1 *858:B 4.1331e-06
7 *939:D *858:B 1.15281e-05
*RES
1 *857:X *858:B 33.9929 
*END

*D_NET *99 0.00275544
*CONN
*I *871:C I *D sky130_fd_sc_hd__or4b_2
*I *829:A I *D sky130_fd_sc_hd__nor4_2
*I *860:Y O *D sky130_fd_sc_hd__inv_2
*CAP
1 *871:C 0.000250422
2 *829:A 0.000100953
3 *860:Y 0.000216671
4 *99:10 0.000568045
5 *829:A *829:B 8.65736e-05
6 *829:A *115:33 8.25843e-06
7 *871:C *828:B 2.50627e-05
8 *871:C *871:A 0.000101545
9 *871:C *110:8 0
10 *871:C *140:46 1.07719e-05
11 *871:C *143:65 1.18358e-05
12 *99:10 *829:C 4.40784e-05
13 *99:10 *860:A 5.52302e-05
14 *99:10 *115:14 0.000462547
15 *99:10 *115:33 1.82657e-05
16 *829:D *99:10 5.52238e-05
17 *830:B *99:10 0.000108902
18 *832:B *871:C 0.000383288
19 *930:D *871:C 0.000247771
*RES
1 *860:Y *99:10 15.6214 
2 *99:10 *829:A 11.0857 
3 *99:10 *871:C 25.0679 
*END

*D_NET *100 0.00768107
*CONN
*I *877:A I *D sky130_fd_sc_hd__nor2_2
*I *829:B I *D sky130_fd_sc_hd__nor4_2
*I *834:A1 I *D sky130_fd_sc_hd__o31a_2
*I *878:A1 I *D sky130_fd_sc_hd__o211a_2
*I *866:A I *D sky130_fd_sc_hd__nand2_2
*I *865:A I *D sky130_fd_sc_hd__and2_2
*I *856:A1 I *D sky130_fd_sc_hd__a31o_2
*I *861:Y O *D sky130_fd_sc_hd__inv_2
*CAP
1 *877:A 0
2 *829:B 0.00052971
3 *834:A1 0
4 *878:A1 0.000157164
5 *866:A 7.4672e-05
6 *865:A 0
7 *856:A1 0.000131846
8 *861:Y 0.000317327
9 *100:69 0.000670382
10 *100:47 0.00017715
11 *100:45 0.000248734
12 *100:32 0.000307926
13 *100:23 0.0001691
14 *100:10 0.000473096
15 *829:B *829:C 0
16 *829:B *878:B1 4.1331e-06
17 *829:B *105:25 1.69115e-05
18 *829:B *115:33 0.000706716
19 *829:B *115:41 1.02504e-05
20 *829:B *116:20 0.000101545
21 *856:A1 *856:A2 0.000182362
22 *856:A1 *856:A3 0.00011695
23 *856:A1 *148:8 1.97695e-05
24 *866:A *880:A1 0.000147862
25 *866:A *148:30 9.97164e-05
26 *878:A1 *880:A1 0
27 *878:A1 *148:45 0.000222028
28 *100:10 *857:A1 0.00038501
29 *100:23 *856:A2 5.52302e-05
30 *100:23 *149:16 8.76257e-05
31 *100:32 *148:30 1.59373e-05
32 *100:32 *149:16 0.000407374
33 *100:45 *148:30 0.00039997
34 *100:47 *879:B 1.04232e-05
35 *100:69 *879:B 9.31893e-05
36 *100:69 *109:25 5.33005e-05
37 *100:69 *116:20 5.52238e-05
38 *100:69 *148:30 1.32056e-05
39 *829:A *829:B 8.65736e-05
40 *857:B1 *856:A1 9.90431e-05
41 *857:B1 *100:10 9.77024e-05
42 *857:B1 *100:23 4.18895e-05
43 *858:B *100:10 0
44 *950:A *100:10 0
45 *4:18 *829:B 3.20512e-05
46 *82:6 *100:23 9.90431e-05
47 *82:6 *100:32 0.000610989
48 *82:6 *100:45 0.000109263
49 *82:95 *100:45 3.42426e-05
50 *82:95 *100:69 8.43535e-06
*RES
1 *861:Y *100:10 25.1036 
2 *100:10 *856:A1 13.0321 
3 *100:10 *100:23 1.35714 
4 *100:23 *865:A 9.3 
5 *100:23 *100:32 6.60714 
6 *100:32 *866:A 20.2464 
7 *100:32 *100:45 3.82143 
8 *100:45 *100:47 0.428571 
9 *100:47 *878:A1 21.6884 
10 *100:47 *834:A1 9.3 
11 *100:45 *100:69 3.01786 
12 *100:69 *829:B 29.9964 
13 *100:69 *877:A 9.3 
*END

*D_NET *101 0.00122952
*CONN
*I *821:A1 I *D sky130_fd_sc_hd__o211a_2
*I *862:Y O *D sky130_fd_sc_hd__inv_2
*CAP
1 *821:A1 0.000351102
2 *862:Y 0.000351102
3 *821:A1 *862:A 4.72917e-05
4 *821:A1 *128:18 7.6644e-05
5 *821:A1 *128:36 0.000202842
6 *821:A1 *128:40 6.05161e-06
7 *821:A2 *821:A1 0.000130277
8 *927:D *821:A1 6.42145e-05
*RES
1 *862:Y *821:A1 35.5777 
*END

*D_NET *102 0.00163107
*CONN
*I *908:A1 I *D sky130_fd_sc_hd__o211a_2
*I *907:A I *D sky130_fd_sc_hd__nand2_2
*I *863:Y O *D sky130_fd_sc_hd__inv_2
*CAP
1 *908:A1 0.00023152
2 *907:A 0.000259985
3 *863:Y 7.74294e-05
4 *102:6 0.000568934
5 *907:A *920:CLK 0
6 *908:A1 *136:14 0
7 *908:A1 *136:20 1.38106e-05
8 *908:A1 *137:29 0
9 *908:B1 *908:A1 1.08359e-05
10 *920:D *908:A1 0.000115611
11 *59:8 *908:A1 1.28809e-05
12 *59:16 *908:A1 0.000340066
*RES
1 *863:Y *102:6 10.2464 
2 *102:6 *907:A 22.0143 
3 *102:6 *908:A1 25.233 
*END

*D_NET *103 0.00126852
*CONN
*I *882:B1 I *D sky130_fd_sc_hd__o211a_2
*I *884:A I *D sky130_fd_sc_hd__nand2_2
*I *864:Y O *D sky130_fd_sc_hd__inv_2
*CAP
1 *882:B1 0.000280918
2 *884:A 0
3 *864:Y 7.08067e-05
4 *103:8 0.000351725
5 *882:B1 *880:A1 3.90513e-05
6 *882:B1 *882:A1 4.46186e-06
7 *882:B1 *884:B 4.99331e-06
8 *882:B1 *121:10 0.000149886
9 *103:8 *864:A 5.65955e-05
10 *103:8 *105:8 0.000103657
11 *103:8 *105:25 0.00014107
12 *4:18 *103:8 6.53542e-05
*RES
1 *864:Y *103:8 11.9071 
2 *103:8 *884:A 9.3 
3 *103:8 *882:B1 23.4071 
*END

*D_NET *104 0.00985017
*CONN
*I *853:S I *D sky130_fd_sc_hd__mux2_1
*I *850:S I *D sky130_fd_sc_hd__mux2_1
*I *883:B I *D sky130_fd_sc_hd__nor2_2
*I *835:S I *D sky130_fd_sc_hd__mux2_1
*I *838:S I *D sky130_fd_sc_hd__mux2_1
*I *841:S I *D sky130_fd_sc_hd__mux2_1
*I *844:S I *D sky130_fd_sc_hd__mux2_1
*I *847:S I *D sky130_fd_sc_hd__mux2_1
*I *865:X O *D sky130_fd_sc_hd__and2_2
*CAP
1 *853:S 0
2 *850:S 0
3 *883:B 0
4 *835:S 0.000289896
5 *838:S 8.64055e-05
6 *841:S 5.72056e-05
7 *844:S 0.0006174
8 *847:S 0.000285836
9 *865:X 4.89143e-05
10 *104:62 0.000143611
11 *104:45 0.000762475
12 *104:43 0.000836282
13 *104:37 0.00110754
14 *104:18 0.00105351
15 *104:16 0.000483132
16 *104:10 0.000470602
17 *835:S *835:A0 9.90431e-05
18 *835:S *840:A 5.49489e-05
19 *838:S *933:CLK 0.0002165
20 *841:S *933:CLK 0.000141729
21 *844:S *841:A1 0.000188167
22 *844:S *844:A0 1.39841e-05
23 *844:S *844:A1 0.000190302
24 *847:S *847:A0 9.60939e-05
25 *847:S *847:A1 2.28499e-05
26 *847:S *144:35 0
27 *104:10 *853:A0 6.75007e-05
28 *104:16 *853:A0 1.76039e-05
29 *104:16 *853:A1 7.77751e-05
30 *104:16 *854:A1 1.41029e-05
31 *104:37 *946:A 9.22693e-06
32 *104:37 *144:10 9.20464e-06
33 *104:37 *144:27 0.000315002
34 *104:37 *148:100 9.6192e-05
35 *104:43 *843:A 0
36 *104:43 *946:A 0.00014442
37 *104:43 *120:18 5.01649e-06
38 *104:43 *148:61 0
39 *104:43 *148:100 1.00332e-05
40 *104:45 *843:A 0
41 *836:A0 *835:S 7.32272e-05
42 *837:B *104:43 0
43 *840:B *835:S 0.000111491
44 *845:A0 *844:S 3.18676e-05
45 *854:A0 *104:16 7.83587e-05
46 *855:B *104:16 0
47 *932:D *104:43 0.000101999
48 *933:D *835:S 0.00010367
49 *954:A *844:S 0.000318107
50 *82:29 *104:10 6.75007e-05
51 *82:29 *104:16 0
52 *82:37 *847:S 0.000260793
53 *82:37 *104:16 0.000368336
54 *82:37 *104:18 0.000126416
55 *82:39 *847:S 0.000175903
*RES
1 *865:X *104:10 19.9429 
2 *104:10 *104:16 13.9821 
3 *104:16 *104:18 1.64286 
4 *104:18 *847:S 20.7464 
5 *104:18 *104:37 18.7857 
6 *104:37 *104:43 8.17857 
7 *104:43 *104:45 2.55357 
8 *104:45 *844:S 27.3714 
9 *104:45 *104:62 4.5 
10 *104:62 *841:S 10.6571 
11 *104:62 *838:S 11.4786 
12 *104:43 *835:S 20.5143 
13 *104:37 *883:B 13.8 
14 *104:16 *850:S 13.8 
15 *104:10 *853:S 9.3 
*END

*D_NET *105 0.00205755
*CONN
*I *834:B1 I *D sky130_fd_sc_hd__o31a_2
*I *878:B1 I *D sky130_fd_sc_hd__o211a_2
*I *884:B I *D sky130_fd_sc_hd__nand2_2
*I *866:Y O *D sky130_fd_sc_hd__nand2_2
*CAP
1 *834:B1 0
2 *878:B1 9.25867e-05
3 *884:B 3.90854e-05
4 *866:Y 0.000157356
5 *105:25 0.000366111
6 *105:8 0.000469966
7 *878:B1 *878:A2 0.000172477
8 *878:B1 *879:B 0
9 *878:B1 *109:25 9.25014e-06
10 *878:B1 *115:41 0
11 *878:B1 *148:45 1.721e-05
12 *884:B *864:A 0
13 *884:B *880:A1 0
14 *884:B *121:10 1.03328e-05
15 *105:25 *864:A 2.12005e-05
16 *105:25 *109:25 0.000114759
17 *105:25 *116:20 0.000135088
18 *829:B *878:B1 4.1331e-06
19 *829:B *105:25 1.69115e-05
20 *882:B1 *884:B 4.99331e-06
21 *4:18 *105:8 2.36641e-05
22 *4:18 *105:25 7.24665e-06
23 *82:95 *878:B1 0.000150449
24 *103:8 *105:8 0.000103657
25 *103:8 *105:25 0.00014107
*RES
1 *866:Y *105:8 11.4964 
2 *105:8 *884:B 19.0321 
3 *105:8 *105:25 9.14286 
4 *105:25 *878:B1 16.6571 
5 *105:25 *834:B1 13.8 
*END

*D_NET *106 0.00140564
*CONN
*I *902:C I *D sky130_fd_sc_hd__and4_2
*I *901:A2 I *D sky130_fd_sc_hd__a31o_2
*I *867:X O *D sky130_fd_sc_hd__and2_2
*CAP
1 *902:C 0
2 *901:A2 0.00024544
3 *867:X 0.000190831
4 *106:12 0.000436271
5 *901:A2 *901:A1 0
6 *901:A2 *112:14 0.000166305
7 *901:A2 *132:51 1.02504e-05
8 *106:12 *875:C 0
9 *106:12 *112:14 1.17968e-05
10 *106:12 *132:51 0.000154965
11 *901:A3 *901:A2 0.000189778
12 *51:50 *106:12 0
*RES
1 *867:X *106:12 17.425 
2 *106:12 *901:A2 19.8714 
3 *106:12 *902:C 13.8 
*END

*D_NET *107 0.00169696
*CONN
*I *869:A I *D sky130_fd_sc_hd__inv_2
*I *868:Y O *D sky130_fd_sc_hd__nand2_2
*CAP
1 *869:A 0.000418802
2 *868:Y 0.000418802
3 *869:A *803:C 8.07951e-05
4 *869:A *868:A 0.000130685
5 *869:A *868:B 0.000450199
6 *869:A *903:B 4.12839e-05
7 *869:A *909:B1 2.21972e-05
8 *869:A *136:33 3.34366e-05
9 *869:A *138:38 1.7614e-05
10 *804:C *869:A 0
11 *921:D *869:A 5.80706e-06
12 *57:20 *869:A 6.77337e-05
13 *57:28 *869:A 9.60337e-06
*RES
1 *868:Y *869:A 44.85 
*END

*D_NET *108 0.00144669
*CONN
*I *909:A1 I *D sky130_fd_sc_hd__a21o_2
*I *806:C I *D sky130_fd_sc_hd__and4_2
*I *869:Y O *D sky130_fd_sc_hd__inv_2
*CAP
1 *909:A1 0.000131418
2 *806:C 8.98267e-05
3 *869:Y 0.000325435
4 *108:8 0.000546679
5 *806:C *138:14 0.00012401
6 *909:A1 *138:14 9.71532e-05
7 *108:8 *921:CLK 3.05446e-05
8 *108:8 *138:8 1.07719e-05
9 *108:8 *138:38 1.10738e-05
10 *806:D *806:C 1.3142e-05
11 *806:D *909:A1 3.60103e-05
12 *921:D *108:8 3.0627e-05
*RES
1 *869:Y *108:8 17.6214 
2 *108:8 *806:C 15.7464 
3 *108:8 *909:A1 16.3536 
*END

*D_NET *109 0.00391367
*CONN
*I *834:A2 I *D sky130_fd_sc_hd__o31a_2
*I *879:B I *D sky130_fd_sc_hd__or2_2
*I *881:A I *D sky130_fd_sc_hd__nand2_2
*I *870:X O *D sky130_fd_sc_hd__and4bb_2
*CAP
1 *834:A2 0
2 *879:B 0.000614202
3 *881:A 5.12949e-05
4 *870:X 0.000306993
5 *109:25 0.000806889
6 *109:8 0.000550975
7 *879:B *878:C1 0
8 *879:B *115:41 0.000225609
9 *879:B *116:94 0.000230475
10 *879:B *116:100 0
11 *879:B *120:30 0
12 *881:A *116:33 4.9039e-05
13 *881:A *121:46 4.82865e-05
14 *109:8 *870:A_N 0.00010096
15 *109:8 *116:33 1.04232e-05
16 *109:8 *121:46 0.000254387
17 *109:25 *864:A 3.98524e-05
18 *109:25 *115:33 0
19 *109:25 *116:20 0.000228035
20 *109:25 *148:45 5.59013e-05
21 *878:B1 *879:B 0
22 *878:B1 *109:25 9.25014e-06
23 *82:95 *879:B 2.6269e-05
24 *82:106 *879:B 3.31535e-05
25 *100:47 *879:B 1.04232e-05
26 *100:69 *879:B 9.31893e-05
27 *100:69 *109:25 5.33005e-05
28 *105:25 *109:25 0.000114759
*RES
1 *870:X *109:8 16.8357 
2 *109:8 *881:A 10.675 
3 *109:8 *109:25 14.2143 
4 *109:25 *879:B 31.1929 
5 *109:25 *834:A2 9.3 
*END

*D_NET *110 0.00698306
*CONN
*I *825:A2 I *D sky130_fd_sc_hd__a31o_2
*I *824:A I *D sky130_fd_sc_hd__nand2_2
*I *857:A2 I *D sky130_fd_sc_hd__a32o_2
*I *871:X O *D sky130_fd_sc_hd__or4b_2
*CAP
1 *825:A2 0.000346854
2 *824:A 0
3 *857:A2 0.000201562
4 *871:X 0.000127164
5 *110:20 0.0012818
6 *110:8 0.00155426
7 *825:A2 *822:B 3.17067e-05
8 *825:A2 *870:C 0.000339359
9 *825:A2 *870:D 3.92757e-05
10 *825:A2 *116:100 0.000176234
11 *825:A2 *116:132 0.000363252
12 *825:A2 *120:30 0
13 *825:A2 *140:33 9.58557e-05
14 *825:A2 *140:46 1.5942e-05
15 *825:A2 *142:19 1.08359e-05
16 *857:A2 *857:A1 0.000385003
17 *857:A2 *121:16 0.000125918
18 *857:A2 *149:6 0.000139913
19 *110:8 *140:46 1.07719e-05
20 *110:8 *142:8 8.46829e-05
21 *110:20 *882:A1 1.28809e-05
22 *110:20 *882:A2 0.000183734
23 *110:20 *882:C1 0.000175832
24 *110:20 *931:CLK 1.59373e-05
25 *110:20 *142:8 9.90367e-05
26 *110:20 *149:6 0.000163519
27 *827:C *825:A2 1.02504e-05
28 *833:C *110:20 0.000670252
29 *858:A *857:A2 4.97825e-05
30 *871:C *110:8 0
31 *911:D *110:20 0.000271449
*RES
1 *871:X *110:8 11.4964 
2 *110:8 *110:20 19.9286 
3 *110:20 *857:A2 24.6393 
4 *110:20 *824:A 9.3 
5 *110:8 *825:A2 28.9786 
*END

*D_NET *111 0.000613541
*CONN
*I *876:A I *D sky130_fd_sc_hd__or4b_2
*I *872:X O *D sky130_fd_sc_hd__or4_2
*CAP
1 *876:A 0.000221025
2 *872:X 0.000221025
3 *876:A *872:A 4.88631e-05
4 *876:A *876:D_N 3.34366e-05
5 *876:A *113:10 3.75052e-05
6 *876:A *115:14 5.16852e-05
*RES
1 *872:X *876:A 31.3143 
*END

*D_NET *112 0.00551721
*CONN
*I *876:B I *D sky130_fd_sc_hd__or4b_2
*I *873:X O *D sky130_fd_sc_hd__or4b_2
*CAP
1 *876:B 0.000196202
2 *873:X 0.00144381
3 *112:14 0.00164001
4 *876:B *876:D_N 9.7659e-05
5 *876:B *921:CLK 2.32625e-05
6 *112:14 *873:A 5.71472e-05
7 *112:14 *873:D_N 2.44318e-05
8 *112:14 *876:D_N 0
9 *112:14 *887:A 0.000215102
10 *112:14 *887:B 4.88637e-05
11 *112:14 *899:A1 5.71472e-05
12 *112:14 *899:B1 2.44318e-05
13 *112:14 *899:C1 5.52238e-05
14 *112:14 *901:A1 0
15 *112:14 *115:14 4.89268e-05
16 *112:14 *134:33 9.22103e-06
17 *112:14 *147:10 0.000173804
18 *112:14 *147:12 0.00015134
19 *112:14 *147:16 0.000370533
20 *900:B1_N *112:14 5.70551e-05
21 *901:A2 *112:14 0.000166305
22 *901:A3 *112:14 0
23 *902:D *112:14 0.000272371
24 *903:C *112:14 0.000132592
25 *918:D *112:14 0.000151333
26 *47:12 *112:14 1.02821e-05
27 *57:14 *112:14 7.83659e-05
28 *106:12 *112:14 1.17968e-05
*RES
1 *873:X *112:14 49.9071 
2 *112:14 *876:B 11.8893 
*END

*D_NET *113 0.00374104
*CONN
*I *876:C I *D sky130_fd_sc_hd__or4b_2
*I *874:X O *D sky130_fd_sc_hd__or4_2
*CAP
1 *876:C 0
2 *874:X 0.000994302
3 *113:10 0.000994302
4 *113:10 *808:A2 0.000101777
5 *113:10 *819:A2 0.000100009
6 *113:10 *821:C1 7.83587e-05
7 *113:10 *872:A 0.000443243
8 *113:10 *872:D 0
9 *113:10 *876:D_N 1.76135e-05
10 *113:10 *115:14 0
11 *113:10 *120:55 0.000287515
12 *113:10 *120:57 0.00021192
13 *113:10 *125:48 0.00030232
14 *113:10 *125:50 3.69697e-05
15 *113:10 *125:92 4.45753e-05
16 *113:10 *145:89 1.67095e-05
17 *809:B1_N *113:10 7.39178e-05
18 *876:A *113:10 3.75052e-05
19 *62:12 *113:10 0
*RES
1 *874:X *113:10 44.5321 
2 *113:10 *876:C 9.3 
*END

*D_NET *114 0.00217029
*CONN
*I *876:D_N I *D sky130_fd_sc_hd__or4b_2
*I *875:X O *D sky130_fd_sc_hd__and4_2
*CAP
1 *876:D_N 0.000583778
2 *875:X 0.000583778
3 *876:D_N *872:D 0
4 *876:D_N *901:A1 0.000389854
5 *876:D_N *902:A 0.000346632
6 *876:D_N *921:CLK 0.000117543
7 *876:D_N *115:14 0
8 *876:D_N *135:21 0
9 *876:A *876:D_N 3.34366e-05
10 *876:B *876:D_N 9.7659e-05
11 *903:C *876:D_N 0
12 *112:14 *876:D_N 0
13 *113:10 *876:D_N 1.76135e-05
*RES
1 *875:X *876:D_N 41.8679 
*END

*D_NET *115 0.00554001
*CONN
*I *877:B I *D sky130_fd_sc_hd__nor2_2
*I *834:A3 I *D sky130_fd_sc_hd__o31a_2
*I *878:A2 I *D sky130_fd_sc_hd__o211a_2
*I *829:C I *D sky130_fd_sc_hd__nor4_2
*I *876:X O *D sky130_fd_sc_hd__or4b_2
*CAP
1 *877:B 0
2 *834:A3 0
3 *878:A2 5.9386e-05
4 *829:C 2.96444e-05
5 *876:X 0.000712107
6 *115:41 0.000222538
7 *115:33 0.000820631
8 *115:14 0.00139923
9 *878:A2 *148:45 0.000170769
10 *115:14 *921:CLK 5.52302e-05
11 *829:A *115:33 8.25843e-06
12 *829:B *829:C 0
13 *829:B *115:33 0.000706716
14 *829:B *115:41 1.02504e-05
15 *876:A *115:14 5.16852e-05
16 *876:D_N *115:14 0
17 *878:B1 *878:A2 0.000172477
18 *878:B1 *115:41 0
19 *879:B *115:41 0.000225609
20 *4:18 *115:33 0.000227495
21 *82:95 *115:41 9.41642e-05
22 *99:10 *829:C 4.40784e-05
23 *99:10 *115:14 0.000462547
24 *99:10 *115:33 1.82657e-05
25 *109:25 *115:33 0
26 *112:14 *115:14 4.89268e-05
27 *113:10 *115:14 0
*RES
1 *876:X *115:14 30.8536 
2 *115:14 *829:C 10.0321 
3 *115:14 *115:33 17.0893 
4 *115:33 *115:41 7.94643 
5 *115:41 *878:A2 20.55 
6 *115:41 *834:A3 9.3 
7 *115:33 *877:B 13.8 
*END

*D_NET *116 0.014786
*CONN
*I *826:C I *D sky130_fd_sc_hd__and3_2
*I *887:A I *D sky130_fd_sc_hd__nor2_2
*I *899:C1 I *D sky130_fd_sc_hd__a211o_2
*I *822:B I *D sky130_fd_sc_hd__xnor2_2
*I *825:A3 I *D sky130_fd_sc_hd__a31o_2
*I *880:A1 I *D sky130_fd_sc_hd__a211o_2
*I *889:B1 I *D sky130_fd_sc_hd__a311o_2
*I *824:B I *D sky130_fd_sc_hd__nand2_2
*I *857:A3 I *D sky130_fd_sc_hd__a32o_2
*I *881:B I *D sky130_fd_sc_hd__nand2_2
*I *877:Y O *D sky130_fd_sc_hd__nor2_2
*CAP
1 *826:C 0.000281283
2 *887:A 3.70862e-05
3 *899:C1 1.1624e-05
4 *822:B 0.000605559
5 *825:A3 0
6 *880:A1 0.000778473
7 *889:B1 0.000522347
8 *824:B 0
9 *857:A3 0.000150551
10 *881:B 0
11 *877:Y 0.000616662
12 *116:132 0.00115504
13 *116:100 0.000433595
14 *116:94 0.00152004
15 *116:50 0.000629048
16 *116:37 0.000486863
17 *116:33 0.00121761
18 *116:20 0.000521795
19 *822:B *825:A1 6.05161e-06
20 *822:B *870:C 4.98055e-06
21 *822:B *120:30 0
22 *822:B *139:10 2.53112e-06
23 *822:B *139:21 0.000118125
24 *822:B *140:33 3.34295e-05
25 *826:C *826:B 0.000105689
26 *826:C *121:50 0.00020042
27 *857:A3 *148:30 0.00014183
28 *857:A3 *149:10 0
29 *880:A1 *880:A2 4.10796e-05
30 *880:A1 *880:B1 0
31 *880:A1 *910:CLK 0.000126439
32 *880:A1 *121:10 0.000175512
33 *880:A1 *148:45 0
34 *887:A *887:B 0.000130419
35 *887:A *899:B1 9.71197e-05
36 *889:B1 *889:A1 1.04232e-05
37 *889:B1 *889:A2 5.7661e-06
38 *889:B1 *889:C1 0.000199699
39 *889:B1 *121:16 0.000199549
40 *889:B1 *130:22 9.7659e-05
41 *899:C1 *899:B1 5.52238e-05
42 *116:20 *864:A 3.34295e-05
43 *116:33 *119:14 4.70831e-05
44 *116:33 *121:16 1.21258e-05
45 *116:33 *121:46 0.000102111
46 *116:37 *121:16 0.000190379
47 *116:50 *121:16 8.33655e-05
48 *116:50 *149:10 0
49 *116:94 *121:46 5.41494e-05
50 *116:100 *120:30 5.0077e-05
51 *116:132 *828:A 0.000128154
52 *116:132 *831:A1 0.000128868
53 *116:132 *870:A_N 0.000112164
54 *116:132 *899:A1 2.8266e-06
55 *116:132 *930:CLK 4.80951e-05
56 *116:132 *121:46 9.79215e-05
57 *116:132 *121:94 0.000541321
58 *116:132 *143:65 0
59 *823:B *826:C 2.12559e-05
60 *825:A2 *822:B 3.17067e-05
61 *825:A2 *116:100 0.000176234
62 *825:A2 *116:132 0.000363252
63 *827:C *822:B 2.15363e-05
64 *829:B *116:20 0.000101545
65 *829:D *116:132 2.26327e-05
66 *858:A *857:A3 0.000222885
67 *866:A *880:A1 0.000147862
68 *878:A1 *880:A1 0
69 *879:B *116:94 0.000230475
70 *879:B *116:100 0
71 *881:A *116:33 4.9039e-05
72 *882:B1 *880:A1 3.90513e-05
73 *884:B *880:A1 0
74 *910:D *880:A1 6.97682e-05
75 *930:D *116:132 3.0627e-05
76 *939:D *116:37 5.52302e-05
77 *4:18 *857:A3 8.3998e-05
78 *4:18 *116:20 6.81694e-05
79 *4:18 *116:132 0
80 *82:106 *822:B 0
81 *100:69 *116:20 5.52238e-05
82 *105:25 *116:20 0.000135088
83 *109:8 *116:33 1.04232e-05
84 *109:25 *116:20 0.000228035
85 *112:14 *887:A 0.000215102
86 *112:14 *899:C1 5.52238e-05
*RES
1 *877:Y *116:20 34.1036 
2 *116:20 *881:B 9.3 
3 *116:20 *116:33 4.80357 
4 *116:33 *116:37 9.55357 
5 *116:37 *857:A3 18.0143 
6 *116:37 *116:50 2.25 
7 *116:50 *824:B 13.8 
8 *116:50 *889:B1 25.5321 
9 *116:33 *880:A1 32.7643 
10 *877:Y *116:94 19.2643 
11 *116:94 *116:100 7.28571 
12 *116:100 *825:A3 9.3 
13 *116:100 *822:B 25.175 
14 *116:94 *116:132 36.5179 
15 *116:132 *899:C1 9.83571 
16 *116:132 *887:A 11.4786 
17 *822:B *826:C 33.1714 
*END

*D_NET *117 0.000754608
*CONN
*I *880:B1 I *D sky130_fd_sc_hd__a211o_2
*I *878:X O *D sky130_fd_sc_hd__o211a_2
*CAP
1 *880:B1 0.00030229
2 *878:X 0.00030229
3 *880:B1 *910:CLK 0
4 *880:B1 *148:45 0.000146543
5 *880:B1 *148:47 3.4846e-06
6 *880:A1 *880:B1 0
*RES
1 *878:X *880:B1 33.475 
*END

*D_NET *118 0.00107214
*CONN
*I *880:A2 I *D sky130_fd_sc_hd__a211o_2
*I *879:X O *D sky130_fd_sc_hd__or2_2
*CAP
1 *880:A2 0.000362185
2 *879:X 0.000362185
3 *880:A2 *836:A1 0.000141935
4 *880:A2 *879:A 4.25684e-05
5 *880:A2 *880:C1 9.83388e-05
6 *880:A1 *880:A2 4.10796e-05
7 *82:95 *880:A2 2.38501e-05
*RES
1 *879:X *880:A2 24.9036 
*END

*D_NET *119 0.000655413
*CONN
*I *833:A I *D sky130_fd_sc_hd__and3_2
*I *882:C1 I *D sky130_fd_sc_hd__o211a_2
*I *881:Y O *D sky130_fd_sc_hd__nand2_2
*CAP
1 *833:A 0
2 *882:C1 6.64421e-05
3 *881:Y 0.000149807
4 *119:14 0.000216249
5 *110:20 *882:C1 0.000175832
6 *116:33 *119:14 4.70831e-05
*RES
1 *881:Y *119:14 20.6036 
2 *119:14 *882:C1 11.0857 
3 *119:14 *833:A 9.3 
*END

*D_NET *120 0.0247046
*CONN
*I *893:B I *D sky130_fd_sc_hd__and3b_2
*I *894:B1 I *D sky130_fd_sc_hd__o21ai_2
*I *885:B1 I *D sky130_fd_sc_hd__o21ai_2
*I *833:B I *D sky130_fd_sc_hd__and3_2
*I *807:B I *D sky130_fd_sc_hd__and3b_2
*I *804:B I *D sky130_fd_sc_hd__and3b_2
*I *903:B I *D sky130_fd_sc_hd__and3b_2
*I *818:A I *D sky130_fd_sc_hd__and3_2
*I *812:B I *D sky130_fd_sc_hd__and3b_2
*I *821:C1 I *D sky130_fd_sc_hd__o211a_2
*I *827:B I *D sky130_fd_sc_hd__and3b_2
*I *883:Y O *D sky130_fd_sc_hd__nor2_2
*CAP
1 *893:B 0.000303822
2 *894:B1 0.000139393
3 *885:B1 0.000562546
4 *833:B 0
5 *807:B 7.65269e-05
6 *804:B 0
7 *903:B 0.000645843
8 *818:A 3.34103e-05
9 *812:B 0.000573682
10 *821:C1 0.000430851
11 *827:B 0
12 *883:Y 0.00186024
13 *120:163 0.000613597
14 *120:150 0.00108509
15 *120:141 0.00122774
16 *120:102 0.00103323
17 *120:96 0.000704092
18 *120:57 0.00107997
19 *120:55 0.000778348
20 *120:43 0.00185025
21 *120:30 0.00227739
22 *120:18 0.00407264
23 *812:B *874:C 0.000180777
24 *821:C1 *819:A2 3.84478e-05
25 *821:C1 *820:A 0
26 *893:B *873:C 6.37494e-05
27 *893:B *873:D_N 0.000115978
28 *894:B1 *873:A 0.000405129
29 *894:B1 *873:B 0.000154762
30 *903:B *803:B 5.83233e-05
31 *903:B *803:C 1.18064e-05
32 *903:B *872:B 0.00014285
33 *903:B *872:D 3.47468e-05
34 *120:18 *148:100 4.12798e-05
35 *120:18 *148:108 5.49544e-05
36 *120:43 *826:A 1.77294e-05
37 *120:43 *826:B 5.33005e-05
38 *120:55 *922:CLK 2.02794e-05
39 *120:55 *923:CLK 3.11713e-05
40 *120:55 *145:61 9.10856e-05
41 *120:55 *145:89 0.000144643
42 *120:55 *145:91 1.55857e-05
43 *120:57 *927:CLK 1.17968e-05
44 *120:57 *145:61 8.56716e-05
45 *120:102 *806:A 0
46 *120:141 *931:CLK 4.50149e-05
47 *120:150 *931:CLK 0.000165262
48 *120:150 *146:8 0
49 *120:150 *146:12 0
50 *120:150 *146:97 0
51 *120:163 *873:A 1.02969e-05
52 *120:163 *146:97 0
53 *804:C *120:102 0
54 *812:A_N *812:B 3.14193e-05
55 *812:C *812:B 8.87627e-05
56 *814:A2 *812:B 0.000102207
57 *816:A3 *120:55 5.23822e-05
58 *818:B *120:55 0.000119954
59 *819:A3 *821:C1 0.000125724
60 *819:A3 *120:57 3.34366e-05
61 *822:B *120:30 0
62 *825:A2 *120:30 0
63 *827:C *120:30 5.93027e-05
64 *869:A *903:B 4.12839e-05
65 *879:B *120:30 0
66 *893:A_N *893:B 7.92229e-06
67 *893:A_N *894:B1 1.17921e-05
68 *893:A_N *120:163 6.7848e-05
69 *895:B1 *894:B1 0.000144773
70 *903:A_N *903:B 0.000255835
71 *903:C *903:B 3.69047e-06
72 *914:D *893:B 5.33005e-05
73 *921:D *903:B 0
74 *921:D *120:102 4.46186e-06
75 *923:D *120:55 9.8126e-05
76 *929:D *120:30 9.71197e-05
77 *929:D *120:43 0.000184745
78 *51:29 *894:B1 0.000247478
79 *57:28 *903:B 2.22043e-05
80 *62:8 *903:B 0.000271958
81 *62:8 *120:102 0
82 *62:12 *120:55 9.97556e-05
83 *62:12 *120:102 0
84 *64:10 *120:102 0.000265976
85 *64:12 *120:102 5.99221e-05
86 *64:43 *812:B 8.56752e-05
87 *68:32 *818:A 5.33005e-05
88 *77:8 *120:43 3.80414e-05
89 *104:43 *120:18 5.01649e-06
90 *113:10 *821:C1 7.83587e-05
91 *113:10 *120:55 0.000287515
92 *113:10 *120:57 0.00021192
93 *116:100 *120:30 5.0077e-05
*RES
1 *883:Y *120:18 25.2556 
2 *120:18 *120:30 22.5121 
3 *120:30 *827:B 9.3 
4 *120:30 *120:43 14.6607 
5 *120:43 *120:55 27.7679 
6 *120:55 *120:57 2.85714 
7 *120:57 *821:C1 21.6929 
8 *120:57 *812:B 30.6571 
9 *120:55 *818:A 14.3357 
10 *120:43 *120:96 2.58929 
11 *120:96 *120:102 17.9286 
12 *120:102 *903:B 31.4607 
13 *120:102 *804:B 9.3 
14 *120:96 *807:B 10.2464 
15 *120:18 *120:141 9.02186 
16 *120:141 *833:B 13.8 
17 *120:141 *120:150 6.80357 
18 *120:150 *885:B1 22.55 
19 *120:150 *120:163 3.24107 
20 *120:163 *894:B1 20.0232 
21 *120:163 *893:B 18.175 
*END

*D_NET *121 0.015126
*CONN
*I *887:B I *D sky130_fd_sc_hd__nor2_2
*I *899:B1 I *D sky130_fd_sc_hd__a211o_2
*I *830:A I *D sky130_fd_sc_hd__nor2_2
*I *808:B1 I *D sky130_fd_sc_hd__a31o_2
*I *814:B1 I *D sky130_fd_sc_hd__a31o_2
*I *823:A I *D sky130_fd_sc_hd__nor2_2
*I *889:C1 I *D sky130_fd_sc_hd__a311o_2
*I *859:B1 I *D sky130_fd_sc_hd__a21o_2
*I *884:Y O *D sky130_fd_sc_hd__nand2_2
*CAP
1 *887:B 5.87016e-05
2 *899:B1 6.11953e-05
3 *830:A 0
4 *808:B1 0.000187246
5 *814:B1 0.000184471
6 *823:A 0.000109238
7 *889:C1 0.000221325
8 *859:B1 0.000107177
9 *884:Y 6.006e-05
10 *121:94 0.000779804
11 *121:83 0.000716611
12 *121:63 0.000818117
13 *121:50 0.00102153
14 *121:46 0.0019793
15 *121:16 0.00109671
16 *121:10 0.00228497
17 *808:B1 *872:A 1.25366e-05
18 *808:B1 *125:48 6.4474e-05
19 *808:B1 *125:92 5.88466e-05
20 *808:B1 *125:101 3.11713e-05
21 *814:B1 *125:48 0.00022931
22 *859:B1 *859:A1 2.89114e-05
23 *887:B *134:33 9.47712e-05
24 *889:C1 *885:A2 0
25 *889:C1 *886:B1 0
26 *889:C1 *130:18 0
27 *889:C1 *150:52 0
28 *899:B1 *134:33 0.000102197
29 *121:16 *857:A1 4.98055e-06
30 *121:16 *150:52 0
31 *121:46 *870:A_N 2.89016e-05
32 *121:46 *870:C 0.00018372
33 *121:50 *826:B 4.43046e-05
34 *121:50 *831:A1 9.10431e-06
35 *121:50 *860:A 0.000159453
36 *121:50 *143:11 0
37 *121:83 *831:A1 1.69115e-05
38 *121:83 *860:A 8.16036e-05
39 *121:94 *831:A1 4.24765e-05
40 *121:94 *860:A 5.80706e-06
41 *121:94 *899:A1 0
42 *811:D *808:B1 7.58841e-05
43 *820:D *814:B1 1.19309e-05
44 *823:B *121:50 0.000313706
45 *826:C *121:50 0.00020042
46 *831:A2 *121:50 0
47 *831:B1 *121:50 0.000121606
48 *831:B1 *121:83 4.8936e-05
49 *857:A2 *121:16 0.000125918
50 *858:A *121:16 8.32242e-05
51 *859:A2 *121:16 0.000341781
52 *880:A1 *121:10 0.000175512
53 *881:A *121:46 4.82865e-05
54 *882:B1 *121:10 0.000149886
55 *884:B *121:10 1.03328e-05
56 *887:A *887:B 0.000130419
57 *887:A *899:B1 9.71197e-05
58 *889:B1 *889:C1 0.000199699
59 *889:B1 *121:16 0.000199549
60 *899:C1 *899:B1 5.52238e-05
61 *901:A3 *121:94 0
62 *928:D *823:A 7.25873e-06
63 *928:D *121:63 2.12647e-05
64 *929:D *121:50 0.000110121
65 *939:D *121:16 1.65169e-05
66 *4:18 *121:46 0.000113957
67 *47:12 *887:B 5.71472e-05
68 *68:8 *814:B1 0.000115346
69 *109:8 *121:46 0.000254387
70 *112:14 *887:B 4.88637e-05
71 *112:14 *899:B1 2.44318e-05
72 *116:33 *121:16 1.21258e-05
73 *116:33 *121:46 0.000102111
74 *116:37 *121:16 0.000190379
75 *116:50 *121:16 8.33655e-05
76 *116:94 *121:46 5.41494e-05
77 *116:132 *121:46 9.79215e-05
78 *116:132 *121:94 0.000541321
*RES
1 *884:Y *121:10 20.55 
2 *121:10 *121:16 18.8036 
3 *121:16 *859:B1 15.5679 
4 *121:16 *889:C1 18.7821 
5 *121:10 *121:46 35.1786 
6 *121:46 *121:50 17.0714 
7 *121:50 *823:A 11.0857 
8 *121:50 *121:63 11.6071 
9 *121:63 *814:B1 19.3893 
10 *121:63 *808:B1 18.175 
11 *121:46 *121:83 1.94643 
12 *121:83 *830:A 13.8 
13 *121:83 *121:94 19.5 
14 *121:94 *899:B1 11.4964 
15 *121:94 *887:B 11.9071 
*END

*D_NET *122 0.00199271
*CONN
*I *886:B1 I *D sky130_fd_sc_hd__a21oi_2
*I *885:Y O *D sky130_fd_sc_hd__o21ai_2
*CAP
1 *886:B1 0.000454447
2 *885:Y 0.000454447
3 *886:B1 *885:A1 9.90431e-05
4 *886:B1 *885:A2 0.000224376
5 *886:B1 *886:A2 0.00030978
6 *886:B1 *123:12 0.00024095
7 *886:B1 *146:33 0
8 *886:B1 *150:52 3.34295e-05
9 *886:B1 *150:65 0.000176234
10 *886:B1 *150:73 0
11 *889:C1 *886:B1 0
12 *912:D *886:B1 0
*RES
1 *885:Y *886:B1 39.5107 
*END

*D_NET *123 0.00737852
*CONN
*I *892:D I *D sky130_fd_sc_hd__and4_2
*I *873:D_N I *D sky130_fd_sc_hd__or4b_2
*I *891:A3 I *D sky130_fd_sc_hd__a31o_2
*I *886:A2 I *D sky130_fd_sc_hd__a21oi_2
*I *889:A3 I *D sky130_fd_sc_hd__a311o_2
*I *888:A2 I *D sky130_fd_sc_hd__a21oi_2
*I *885:A2 I *D sky130_fd_sc_hd__o21ai_2
*I *912:Q O *D sky130_fd_sc_hd__dfxtp_2
*CAP
1 *892:D 0.000317471
2 *873:D_N 0.000240124
3 *891:A3 0
4 *886:A2 0.000368832
5 *889:A3 0
6 *888:A2 0.00011672
7 *885:A2 0.00017131
8 *912:Q 2.23854e-05
9 *123:75 0.00120585
10 *123:60 0.000795218
11 *123:25 0.00011672
12 *123:12 0.000291133
13 *123:10 0.000608515
14 *123:6 0.000289215
15 *873:D_N *873:A 0.000140933
16 *885:A2 *885:A1 5.71472e-05
17 *886:A2 *886:A1 9.90367e-05
18 *886:A2 *130:12 0
19 *888:A2 *888:B1 0.000183713
20 *888:A2 *889:A1 9.41642e-05
21 *888:A2 *150:69 0.00026533
22 *892:D *892:B 5.48009e-05
23 *892:D *915:CLK 0.000139202
24 *123:60 *130:12 0.000361914
25 *123:75 *891:A2 1.98839e-05
26 *123:75 *130:18 2.01732e-05
27 *886:B1 *885:A2 0.000224376
28 *886:B1 *886:A2 0.00030978
29 *886:B1 *123:12 0.00024095
30 *889:C1 *885:A2 0
31 *890:A *888:A2 3.14193e-05
32 *890:B *888:A2 0.000120236
33 *893:A_N *873:D_N 0.000235624
34 *893:B *873:D_N 0.000115978
35 *893:C *873:D_N 0
36 *893:C *123:60 2.47724e-05
37 *893:C *123:75 1.83169e-05
38 *895:A2 *892:D 3.22304e-05
39 *895:B1 *892:D 0
40 *914:D *873:D_N 0
41 *51:8 *892:D 2.06178e-05
42 *112:14 *873:D_N 2.44318e-05
*RES
1 *912:Q *123:6 9.72857 
2 *123:6 *123:10 6.26786 
3 *123:10 *123:12 3.16071 
4 *123:12 *885:A2 17.4071 
5 *123:12 *123:25 4.5 
6 *123:25 *888:A2 14.0857 
7 *123:25 *889:A3 9.3 
8 *123:10 *886:A2 21.425 
9 *123:6 *123:60 4.25 
10 *123:60 *891:A3 9.3 
11 *123:60 *123:75 9.6343 
12 *123:75 *873:D_N 22.9332 
13 *123:75 *892:D 19.6457 
*END

*D_NET *124 0.00559931
*CONN
*I *872:B I *D sky130_fd_sc_hd__or4_2
*I *806:A I *D sky130_fd_sc_hd__and4_2
*I *805:A I *D sky130_fd_sc_hd__or2_2
*I *808:A2 I *D sky130_fd_sc_hd__a31o_2
*I *811:C I *D sky130_fd_sc_hd__and4_2
*I *922:Q O *D sky130_fd_sc_hd__dfxtp_2
*CAP
1 *872:B 0.000351944
2 *806:A 0.000880161
3 *805:A 0
4 *808:A2 3.51967e-05
5 *811:C 5.1526e-05
6 *922:Q 0.000250955
7 *124:36 0.000618533
8 *124:14 0.000640373
9 *124:6 0.000894921
10 *808:A2 *872:A 1.00887e-05
11 *808:A2 *125:92 3.29297e-05
12 *808:A2 *125:101 7.89362e-05
13 *811:C *929:CLK 9.75679e-05
14 *872:B *806:B 9.60939e-05
15 *872:B *872:C 0.000567284
16 *124:14 *922:CLK 1.4796e-05
17 *124:14 *929:CLK 0.000210447
18 *124:14 *125:38 6.75952e-05
19 *124:14 *125:46 3.37161e-05
20 *807:C *806:A 0.000123903
21 *809:A2 *124:14 0.000183711
22 *903:B *872:B 0.00014285
23 *922:D *806:A 0
24 *922:D *124:14 1.64343e-05
25 *923:D *124:14 9.75679e-05
26 *113:10 *808:A2 0.000101777
27 *120:102 *806:A 0
*RES
1 *922:Q *124:6 12.3 
2 *124:6 *124:14 10.8571 
3 *124:14 *811:C 10.2464 
4 *124:14 *808:A2 19.6393 
5 *124:6 *124:36 5.83929 
6 *124:36 *805:A 13.8 
7 *124:36 *806:A 24.175 
8 *806:A *872:B 26.1357 
*END

*D_NET *125 0.00920159
*CONN
*I *809:A1 I *D sky130_fd_sc_hd__o21ba_2
*I *872:A I *D sky130_fd_sc_hd__or4_2
*I *808:A1 I *D sky130_fd_sc_hd__a31o_2
*I *811:B I *D sky130_fd_sc_hd__and4_2
*I *814:A1 I *D sky130_fd_sc_hd__a31o_2
*I *820:B I *D sky130_fd_sc_hd__nand4_2
*I *810:A1 I *D sky130_fd_sc_hd__a21o_2
*I *819:A2 I *D sky130_fd_sc_hd__a41o_2
*I *816:A1 I *D sky130_fd_sc_hd__a31o_2
*I *817:B I *D sky130_fd_sc_hd__nand4_2
*I *923:Q O *D sky130_fd_sc_hd__dfxtp_2
*CAP
1 *809:A1 0
2 *872:A 0.000544068
3 *808:A1 0
4 *811:B 0
5 *814:A1 0.000125031
6 *820:B 0.000252525
7 *810:A1 6.59684e-05
8 *819:A2 0.000470992
9 *816:A1 3.59683e-05
10 *817:B 0.000147534
11 *923:Q 0.000256233
12 *125:101 0.000581431
13 *125:92 8.99043e-05
14 *125:65 0.000318493
15 *125:50 0.000524327
16 *125:48 0.00040927
17 *125:46 0.000571411
18 *125:38 0.000332022
19 *125:12 0.000374794
20 *125:10 0.000491582
21 *817:B *816:B1 0.000216048
22 *817:B *128:36 9.25014e-06
23 *819:A2 *819:A1 0.000227539
24 *819:A2 *874:A 3.01979e-05
25 *819:A2 *126:21 0
26 *819:A2 *129:8 0
27 *820:B *926:CLK 1.58163e-05
28 *125:38 *922:CLK 0.000213044
29 *125:46 *811:A 9.67754e-05
30 *125:46 *922:CLK 0.000139337
31 *125:46 *929:CLK 6.94937e-05
32 *805:B *125:10 0.000226279
33 *808:A2 *872:A 1.00887e-05
34 *808:A2 *125:92 3.29297e-05
35 *808:A2 *125:101 7.89362e-05
36 *808:B1 *872:A 1.25366e-05
37 *808:B1 *125:48 6.4474e-05
38 *808:B1 *125:92 5.88466e-05
39 *808:B1 *125:101 3.11713e-05
40 *809:A2 *125:38 9.84673e-05
41 *809:A2 *125:46 9.84729e-05
42 *812:C *819:A2 0
43 *814:A2 *819:A2 0
44 *814:B1 *125:48 0.00022931
45 *820:C *820:B 5.7661e-06
46 *820:D *810:A1 9.90367e-05
47 *820:D *819:A2 0
48 *820:D *820:B 4.27935e-05
49 *820:D *125:48 0
50 *820:D *125:50 0
51 *821:C1 *819:A2 3.84478e-05
52 *876:A *872:A 4.88631e-05
53 *64:12 *125:10 3.79336e-05
54 *64:14 *817:B 5.60463e-06
55 *64:14 *125:10 6.14702e-06
56 *64:14 *125:12 9.61574e-05
57 *64:16 *817:B 8.93765e-05
58 *64:26 *817:B 2.8266e-06
59 *64:26 *820:B 5.74499e-06
60 *64:43 *820:B 4.16984e-05
61 *68:32 *814:A1 0.000102197
62 *113:10 *819:A2 0.000100009
63 *113:10 *872:A 0.000443243
64 *113:10 *125:48 0.00030232
65 *113:10 *125:50 3.69697e-05
66 *113:10 *125:92 4.45753e-05
67 *124:14 *125:38 6.75952e-05
68 *124:14 *125:46 3.37161e-05
*RES
1 *923:Q *125:10 17.925 
2 *125:10 *125:12 3.91964 
3 *125:12 *817:B 17.9518 
4 *125:12 *816:A1 14.6125 
5 *125:10 *125:38 6.67857 
6 *125:38 *125:46 9.58929 
7 *125:46 *125:48 7.41071 
8 *125:48 *125:50 1.03571 
9 *125:50 *819:A2 20.8893 
10 *125:50 *125:65 4.5 
11 *125:65 *810:A1 10.2464 
12 *125:65 *820:B 12.6214 
13 *125:48 *814:A1 15.5679 
14 *125:46 *125:92 1.64286 
15 *125:92 *811:B 13.8 
16 *125:92 *125:101 1.03571 
17 *125:101 *808:A1 13.8 
18 *125:101 *872:A 26.425 
19 *125:38 *809:A1 9.3 
*END

*D_NET *126 0.00333556
*CONN
*I *811:A I *D sky130_fd_sc_hd__and4_2
*I *813:B I *D sky130_fd_sc_hd__and2_2
*I *810:B1 I *D sky130_fd_sc_hd__a21o_2
*I *874:D I *D sky130_fd_sc_hd__or4_2
*I *924:Q O *D sky130_fd_sc_hd__dfxtp_2
*CAP
1 *811:A 0.000271543
2 *813:B 0
3 *810:B1 5.95617e-05
4 *874:D 7.51437e-05
5 *924:Q 0.000136025
6 *126:32 0.000461772
7 *126:21 0.00033968
8 *126:10 0.000301058
9 *811:A *929:CLK 0.000208837
10 *874:D *874:C 9.7659e-05
11 *126:21 *874:C 5.01213e-05
12 *126:21 *127:21 4.81157e-05
13 *126:32 *813:A 0.000203949
14 *126:32 *127:21 9.21958e-05
15 *812:A_N *126:21 0
16 *812:C *874:D 2.59355e-05
17 *812:C *126:10 5.66157e-05
18 *812:C *126:21 0.000148196
19 *814:A2 *810:B1 9.90431e-05
20 *814:A2 *126:21 3.34295e-05
21 *814:A2 *126:32 0.000128161
22 *819:A2 *126:21 0
23 *820:D *810:B1 5.71472e-05
24 *820:D *126:32 2.82057e-05
25 *924:D *126:10 0
26 *67:10 *811:A 0.000141941
27 *68:8 *126:32 0.000174451
28 *125:46 *811:A 9.67754e-05
*RES
1 *924:Q *126:10 15.9786 
2 *126:10 *874:D 15.5679 
3 *126:10 *126:21 2.85714 
4 *126:21 *810:B1 15.1571 
5 *126:21 *126:32 7.10714 
6 *126:32 *813:B 13.8 
7 *126:32 *811:A 19.8714 
*END

*D_NET *127 0.00189469
*CONN
*I *813:A I *D sky130_fd_sc_hd__and2_2
*I *815:A1 I *D sky130_fd_sc_hd__o21ba_2
*I *874:C I *D sky130_fd_sc_hd__or4_2
*I *925:Q O *D sky130_fd_sc_hd__dfxtp_2
*CAP
1 *813:A 0.000136736
2 *815:A1 0
3 *874:C 0.000178575
4 *925:Q 0
5 *127:21 0.000204965
6 *127:6 0.000246804
7 *874:C *819:A1 3.57366e-05
8 *812:A_N *874:C 5.98631e-05
9 *812:A_N *127:21 0.000134504
10 *812:B *874:C 0.000180777
11 *812:C *874:C 2.07382e-05
12 *874:D *874:C 9.7659e-05
13 *67:10 *813:A 0.000198142
14 *67:10 *127:21 5.80706e-06
15 *126:21 *874:C 5.01213e-05
16 *126:21 *127:21 4.81157e-05
17 *126:32 *813:A 0.000203949
18 *126:32 *127:21 9.21958e-05
*RES
1 *925:Q *127:6 13.8 
2 *127:6 *874:C 18.5679 
3 *127:6 *127:21 3.16071 
4 *127:21 *815:A1 13.8 
5 *127:21 *813:A 18.7821 
*END

*D_NET *128 0.0045878
*CONN
*I *816:B1 I *D sky130_fd_sc_hd__a31o_2
*I *862:A I *D sky130_fd_sc_hd__inv_2
*I *817:A I *D sky130_fd_sc_hd__nand4_2
*I *874:B I *D sky130_fd_sc_hd__or4_2
*I *819:A1 I *D sky130_fd_sc_hd__a41o_2
*I *926:Q O *D sky130_fd_sc_hd__dfxtp_2
*CAP
1 *816:B1 0.000164573
2 *862:A 5.98372e-05
3 *817:A 0
4 *874:B 1.91209e-05
5 *819:A1 0.000105246
6 *926:Q 0.000408527
7 *128:40 9.73155e-05
8 *128:36 0.000315982
9 *128:18 0.000663745
10 *128:8 0.00106184
11 *819:A1 *874:A 0.000227539
12 *128:18 *874:A 9.02331e-05
13 *128:18 *927:CLK 0.000396898
14 *128:18 *129:8 7.53109e-06
15 *817:B *816:B1 0.000216048
16 *817:B *128:36 9.25014e-06
17 *819:A2 *819:A1 0.000227539
18 *819:A3 *128:18 2.78608e-05
19 *821:A1 *862:A 4.72917e-05
20 *821:A1 *128:18 7.6644e-05
21 *821:A1 *128:36 0.000202842
22 *821:A1 *128:40 6.05161e-06
23 *821:A2 *128:18 7.6644e-05
24 *874:C *819:A1 3.57366e-05
25 *926:D *128:36 4.35048e-05
26 *64:26 *128:36 0
*RES
1 *926:Q *128:8 18.4429 
2 *128:8 *128:18 13.1964 
3 *128:18 *819:A1 12.925 
4 *128:18 *874:B 9.72857 
5 *128:8 *128:36 3.16071 
6 *128:36 *128:40 5.03571 
7 *128:40 *817:A 9.3 
8 *128:40 *862:A 10.6571 
9 *128:36 *816:B1 17.6036 
*END

*D_NET *129 0.0028282
*CONN
*I *819:B1 I *D sky130_fd_sc_hd__a41o_2
*I *820:A I *D sky130_fd_sc_hd__nand4_2
*I *874:A I *D sky130_fd_sc_hd__or4_2
*I *927:Q O *D sky130_fd_sc_hd__dfxtp_2
*CAP
1 *819:B1 0
2 *820:A 0.000179594
3 *874:A 0.000132489
4 *927:Q 0.000668809
5 *129:21 0.000190786
6 *129:8 0.00081249
7 *874:A *927:CLK 3.44313e-05
8 *129:8 *927:CLK 2.24763e-05
9 *819:A1 *874:A 0.000227539
10 *819:A2 *874:A 3.01979e-05
11 *819:A2 *129:8 0
12 *819:A3 *874:A 0.000144773
13 *819:A4 *820:A 9.87983e-06
14 *819:A4 *874:A 3.77662e-05
15 *821:A2 *820:A 0
16 *821:B1 *129:8 9.90367e-05
17 *821:C1 *820:A 0
18 *927:D *129:8 0.000101117
19 *64:26 *820:A 3.9052e-05
20 *128:18 *874:A 9.02331e-05
21 *128:18 *129:8 7.53109e-06
*RES
1 *927:Q *129:8 17.6571 
2 *129:8 *874:A 14.0857 
3 *129:8 *129:21 0.428571 
4 *129:21 *820:A 21.1571 
5 *129:21 *819:B1 9.3 
*END

*D_NET *130 0.00470536
*CONN
*I *891:A2 I *D sky130_fd_sc_hd__a31o_2
*I *892:C I *D sky130_fd_sc_hd__and4_2
*I *873:C I *D sky130_fd_sc_hd__or4b_2
*I *889:A2 I *D sky130_fd_sc_hd__a311o_2
*I *888:B1 I *D sky130_fd_sc_hd__a21oi_2
*I *913:Q O *D sky130_fd_sc_hd__dfxtp_2
*CAP
1 *891:A2 4.27334e-05
2 *892:C 0.000358691
3 *873:C 0.000249114
4 *889:A2 2.03441e-05
5 *888:B1 7.81855e-05
6 *913:Q 0.000279489
7 *130:22 0.000387181
8 *130:18 0.000797824
9 *130:14 0.00061875
10 *130:12 0.000322223
11 *888:B1 *889:A1 1.56e-05
12 *892:C *891:A1 3.42301e-05
13 *892:C *892:A 0.000257794
14 *892:C *892:B 5.60962e-05
15 *892:C *915:CLK 0.000116007
16 *892:C *150:92 9.66977e-05
17 *130:18 *891:A1 4.13122e-06
18 *130:22 *889:A1 1.74352e-05
19 *886:A2 *130:12 0
20 *888:A2 *888:B1 0.000183713
21 *889:B1 *889:A2 5.7661e-06
22 *889:B1 *130:22 9.7659e-05
23 *889:C1 *130:18 0
24 *890:B *888:B1 5.62995e-05
25 *893:A_N *873:C 5.65955e-05
26 *893:B *873:C 6.37494e-05
27 *893:C *873:C 1.64343e-05
28 *914:D *873:C 7.06457e-05
29 *123:60 *130:12 0.000361914
30 *123:75 *891:A2 1.98839e-05
31 *123:75 *130:18 2.01732e-05
*RES
1 *913:Q *130:12 22.7464 
2 *130:12 *130:14 4.5 
3 *130:14 *130:18 7.96429 
4 *130:18 *130:22 5.48214 
5 *130:22 *888:B1 11.4786 
6 *130:22 *889:A2 9.72857 
7 *130:18 *873:C 14.3536 
8 *130:14 *892:C 20.0321 
9 *130:12 *891:A2 9.83571 
*END

*D_NET *131 0.0024981
*CONN
*I *873:B I *D sky130_fd_sc_hd__or4b_2
*I *892:B I *D sky130_fd_sc_hd__and4_2
*I *891:B1 I *D sky130_fd_sc_hd__a31o_2
*I *914:Q O *D sky130_fd_sc_hd__dfxtp_2
*CAP
1 *873:B 7.36414e-05
2 *892:B 0.00015811
3 *891:B1 0.000365774
4 *914:Q 0.000144173
5 *131:8 0.000605273
6 *131:6 0.000299204
7 *892:B *915:CLK 1.5872e-05
8 *892:C *892:B 5.60962e-05
9 *892:D *892:B 5.48009e-05
10 *893:A_N *873:B 0.000173377
11 *893:C *891:B1 1.15418e-05
12 *894:B1 *873:B 0.000154762
13 *914:D *891:B1 7.99677e-06
14 *51:8 *873:B 3.06511e-05
15 *51:8 *892:B 7.54868e-05
16 *51:29 *131:6 0.000218045
17 *51:29 *131:8 5.33005e-05
*RES
1 *914:Q *131:6 11.4786 
2 *131:6 *131:8 0.946429 
3 *131:8 *891:B1 13.55 
4 *131:8 *892:B 20.6929 
5 *131:6 *873:B 20.8536 
*END

*D_NET *132 0.00789892
*CONN
*I *873:A I *D sky130_fd_sc_hd__or4b_2
*I *896:B I *D sky130_fd_sc_hd__and3_2
*I *901:A1 I *D sky130_fd_sc_hd__a31o_2
*I *902:B I *D sky130_fd_sc_hd__and4_2
*I *897:A1 I *D sky130_fd_sc_hd__a21o_2
*I *895:A1 I *D sky130_fd_sc_hd__a21oi_2
*I *894:A1 I *D sky130_fd_sc_hd__o21ai_2
*I *915:Q O *D sky130_fd_sc_hd__dfxtp_2
*CAP
1 *873:A 0.00031393
2 *896:B 0.000284436
3 *901:A1 0.000334904
4 *902:B 0
5 *897:A1 0
6 *895:A1 0.000350349
7 *894:A1 0.00046103
8 *915:Q 5.05799e-05
9 *132:51 0.000444557
10 *132:47 0.00099469
11 *132:32 0.00124347
12 *132:21 0.0011942
13 *132:8 0.000398663
14 *896:B *867:B 5.95965e-05
15 *896:B *134:8 9.60875e-05
16 *901:A1 *875:C 3.14193e-05
17 *901:A1 *902:A 5.52238e-05
18 *132:32 *897:B1 5.62995e-05
19 *132:47 *867:A 0
20 *132:47 *875:D 5.9483e-05
21 *132:47 *897:B1 4.13496e-05
22 *132:47 *920:CLK 0
23 *132:47 *133:30 0
24 *132:51 *875:D 5.72223e-05
25 *132:51 *902:A 0
26 *132:51 *147:61 0
27 *873:D_N *873:A 0.000140933
28 *876:D_N *901:A1 0.000389854
29 *894:B1 *873:A 0.000405129
30 *895:B1 *873:A 2.44318e-05
31 *895:B1 *894:A1 0
32 *895:B1 *132:21 0
33 *898:B *132:32 4.0552e-05
34 *900:B1_N *894:A1 0
35 *900:B1_N *132:21 0
36 *901:A2 *901:A1 0
37 *901:A2 *132:51 1.02504e-05
38 *903:C *901:A1 0
39 *906:A *896:B 8.37135e-05
40 *915:D *895:A1 3.67257e-05
41 *51:29 *873:A 1.74352e-05
42 *51:50 *132:47 0
43 *106:12 *132:51 0.000154965
44 *112:14 *873:A 5.71472e-05
45 *112:14 *901:A1 0
46 *120:163 *873:A 1.02969e-05
*RES
1 *915:Q *132:8 14.3357 
2 *132:8 *894:A1 15.7464 
3 *132:8 *132:21 8.26786 
4 *132:21 *895:A1 14.7821 
5 *132:21 *132:32 10.3929 
6 *132:32 *897:A1 9.3 
7 *132:32 *132:47 14.875 
8 *132:47 *132:51 7.35714 
9 *132:51 *902:B 9.3 
10 *132:51 *901:A1 24.6393 
11 *132:47 *896:B 18.5857 
12 *894:A1 *873:A 35.3321 
*END

*D_NET *133 0.00311834
*CONN
*I *897:B1 I *D sky130_fd_sc_hd__a21o_2
*I *896:A I *D sky130_fd_sc_hd__and3_2
*I *867:B I *D sky130_fd_sc_hd__and2_2
*I *875:D I *D sky130_fd_sc_hd__and4_2
*I *916:Q O *D sky130_fd_sc_hd__dfxtp_2
*CAP
1 *897:B1 0.000177426
2 *896:A 0
3 *867:B 4.11554e-05
4 *875:D 0.000210661
5 *916:Q 0.000625323
6 *133:30 0.000140236
7 *133:26 0.000691169
8 *867:B *134:8 6.05161e-06
9 *867:B *147:78 2.44318e-05
10 *875:D *875:C 0.000140933
11 *875:D *902:A 9.90367e-05
12 *875:D *920:CLK 2.28428e-05
13 *875:D *147:61 7.73067e-05
14 *875:D *147:72 1.46624e-05
15 *896:B *867:B 5.95965e-05
16 *897:A2 *897:B1 0.000117903
17 *897:A2 *133:30 0.000220441
18 *906:A *867:B 0.00010096
19 *906:A *133:26 4.00276e-06
20 *906:A *133:30 0.000100823
21 *51:39 *867:B 1.97695e-05
22 *51:50 *133:30 9.25014e-06
23 *132:32 *897:B1 5.62995e-05
24 *132:47 *875:D 5.9483e-05
25 *132:47 *897:B1 4.13496e-05
26 *132:47 *133:30 0
27 *132:51 *875:D 5.72223e-05
*RES
1 *916:Q *875:D 33.3321 
2 *916:Q *133:26 18.4429 
3 *133:26 *133:30 7.35714 
4 *133:30 *867:B 11.0857 
5 *133:30 *896:A 9.3 
6 *133:26 *897:B1 17.6393 
*END

*D_NET *134 0.00421135
*CONN
*I *867:A I *D sky130_fd_sc_hd__and2_2
*I *900:A1 I *D sky130_fd_sc_hd__o21ba_2
*I *899:A1 I *D sky130_fd_sc_hd__a211o_2
*I *875:C I *D sky130_fd_sc_hd__and4_2
*I *917:Q O *D sky130_fd_sc_hd__dfxtp_2
*CAP
1 *867:A 3.17496e-05
2 *900:A1 0.00026381
3 *899:A1 6.24941e-05
4 *875:C 0.000347673
5 *917:Q 0.000130509
6 *134:33 0.000721424
7 *134:12 0.000839
8 *134:8 0.000258466
9 *875:C *902:A 2.44318e-05
10 *900:A1 *916:CLK 0
11 *134:8 *147:78 5.74499e-06
12 *867:B *134:8 6.05161e-06
13 *875:D *875:C 0.000140933
14 *887:B *134:33 9.47712e-05
15 *896:B *134:8 9.60875e-05
16 *899:A2 *899:A1 4.81157e-05
17 *899:A2 *900:A1 7.252e-05
18 *899:B1 *134:33 0.000102197
19 *900:A2 *900:A1 5.71472e-05
20 *900:B1_N *900:A1 0
21 *901:A1 *875:C 3.14193e-05
22 *902:D *875:C 0.000232399
23 *902:D *134:33 2.77289e-05
24 *908:C1 *875:C 2.11419e-05
25 *47:12 *899:A1 0
26 *47:12 *900:A1 0
27 *47:12 *134:33 9.71197e-05
28 *51:39 *134:8 0.000229456
29 *51:48 *134:8 1.39726e-05
30 *51:50 *867:A 1.8791e-05
31 *51:50 *875:C 1.721e-05
32 *51:50 *134:12 8.78763e-05
33 *53:25 *900:A1 6.19181e-05
34 *106:12 *875:C 0
35 *112:14 *899:A1 5.71472e-05
36 *112:14 *134:33 9.22103e-06
37 *116:132 *899:A1 2.8266e-06
38 *121:94 *899:A1 0
39 *132:47 *867:A 0
*RES
1 *917:Q *134:8 16.8 
2 *134:8 *134:12 1.72321 
3 *134:12 *875:C 20.9875 
4 *134:12 *134:33 14.4643 
5 *134:33 *899:A1 15.3714 
6 *134:33 *900:A1 18.8179 
7 *134:8 *867:A 14.8893 
*END

*D_NET *135 0.00266794
*CONN
*I *901:B1 I *D sky130_fd_sc_hd__a31o_2
*I *902:A I *D sky130_fd_sc_hd__and4_2
*I *872:D I *D sky130_fd_sc_hd__or4_2
*I *918:Q O *D sky130_fd_sc_hd__dfxtp_2
*CAP
1 *901:B1 0
2 *902:A 0.000207648
3 *872:D 0.000414808
4 *918:Q 0
5 *135:21 0.000486055
6 *135:6 0.000693214
7 *872:D *803:B 0
8 *902:A *147:61 0.000125724
9 *135:21 *803:B 0
10 *875:C *902:A 2.44318e-05
11 *875:D *902:A 9.90367e-05
12 *876:D_N *872:D 0
13 *876:D_N *902:A 0.000346632
14 *876:D_N *135:21 0
15 *901:A1 *902:A 5.52238e-05
16 *903:B *872:D 3.47468e-05
17 *62:8 *872:D 0.00017461
18 *62:12 *872:D 5.80706e-06
19 *113:10 *872:D 0
20 *132:51 *902:A 0
*RES
1 *918:Q *135:6 13.8 
2 *135:6 *872:D 22.1214 
3 *135:6 *135:21 9.14286 
4 *135:21 *902:A 24.3357 
5 *135:21 *901:B1 9.3 
*END

*D_NET *136 0.00520082
*CONN
*I *905:A I *D sky130_fd_sc_hd__nand2_2
*I *904:A I *D sky130_fd_sc_hd__or2_2
*I *868:B I *D sky130_fd_sc_hd__nand2_2
*I *803:C I *D sky130_fd_sc_hd__and4_2
*I *875:B I *D sky130_fd_sc_hd__and4_2
*I *919:Q O *D sky130_fd_sc_hd__dfxtp_2
*CAP
1 *905:A 0
2 *904:A 2.61003e-05
3 *868:B 0.00029257
4 *803:C 2.55361e-05
5 *875:B 0.000287429
6 *919:Q 0.000373001
7 *136:33 0.00047927
8 *136:31 0.000249558
9 *136:20 0.000467411
10 *136:14 0.000490689
11 *803:C *803:B 5.83304e-05
12 *868:B *803:A 1.58163e-05
13 *868:B *803:B 2.59355e-05
14 *868:B *868:A 8.78484e-05
15 *875:B *875:A 0.000271345
16 *875:B *137:29 2.13481e-06
17 *136:14 *137:29 9.5923e-05
18 *136:20 *137:29 3.28994e-05
19 *136:31 *803:B 0.000113038
20 *136:33 *803:B 0.000558004
21 *869:A *803:C 8.07951e-05
22 *869:A *868:B 0.000450199
23 *869:A *136:33 3.34366e-05
24 *903:B *803:C 1.18064e-05
25 *905:B *136:14 2.44318e-05
26 *905:B *136:20 0.000208014
27 *905:B *136:31 3.75052e-05
28 *908:A1 *136:14 0
29 *908:A1 *136:20 1.38106e-05
30 *920:D *136:14 3.47737e-05
31 *57:14 *904:A 2.89114e-05
32 *57:20 *136:31 2.8266e-06
33 *57:20 *136:33 0.000199576
34 *59:8 *136:20 0.000121894
*RES
1 *919:Q *136:14 23.7821 
2 *136:14 *136:20 3.85714 
3 *136:20 *875:B 13.1214 
4 *136:20 *136:31 6.14286 
5 *136:31 *136:33 7.10714 
6 *136:33 *803:C 14.8357 
7 *136:33 *868:B 20.4071 
8 *136:31 *904:A 14.3357 
9 *136:14 *905:A 9.3 
*END

*D_NET *137 0.00560076
*CONN
*I *868:A I *D sky130_fd_sc_hd__nand2_2
*I *803:B I *D sky130_fd_sc_hd__and4_2
*I *875:A I *D sky130_fd_sc_hd__and4_2
*I *863:A I *D sky130_fd_sc_hd__inv_2
*I *920:Q O *D sky130_fd_sc_hd__dfxtp_2
*CAP
1 *868:A 0.000354123
2 *803:B 0.000790478
3 *875:A 9.57011e-05
4 *863:A 0.000110609
5 *920:Q 0.000230755
6 *137:29 0.00127757
7 *137:12 0.00108688
8 *868:A *803:A 5.33005e-05
9 *803:C *803:B 5.83304e-05
10 *868:B *803:B 2.59355e-05
11 *868:B *868:A 8.78484e-05
12 *869:A *868:A 0.000130685
13 *872:D *803:B 0
14 *875:B *875:A 0.000271345
15 *875:B *137:29 2.13481e-06
16 *903:A_N *803:B 1.33343e-05
17 *903:B *803:B 5.83233e-05
18 *905:B *137:29 1.16789e-05
19 *908:A1 *137:29 0
20 *920:D *137:29 0
21 *59:8 *137:29 0.00014186
22 *135:21 *803:B 0
23 *136:14 *137:29 9.5923e-05
24 *136:20 *137:29 3.28994e-05
25 *136:31 *803:B 0.000113038
26 *136:33 *803:B 0.000558004
*RES
1 *920:Q *137:12 22.8357 
2 *137:12 *863:A 11.0679 
3 *137:12 *137:29 21.375 
4 *137:29 *875:A 11.8893 
5 *137:29 *803:B 28.7821 
6 *803:B *868:A 24.35 
*END

*D_NET *138 0.00364603
*CONN
*I *909:B1 I *D sky130_fd_sc_hd__a21o_2
*I *803:A I *D sky130_fd_sc_hd__and4_2
*I *806:B I *D sky130_fd_sc_hd__and4_2
*I *872:C I *D sky130_fd_sc_hd__or4_2
*I *921:Q O *D sky130_fd_sc_hd__dfxtp_2
*CAP
1 *909:B1 0.000144201
2 *803:A 2.25053e-05
3 *806:B 5.76774e-05
4 *872:C 0.000190032
5 *921:Q 0.000273584
6 *138:38 0.000397986
7 *138:14 0.000315684
8 *138:8 0.000572839
9 *138:38 *921:CLK 0
10 *804:C *872:C 8.9299e-05
11 *804:C *909:B1 3.92437e-05
12 *804:C *138:38 9.60808e-05
13 *806:C *138:14 0.00012401
14 *806:D *872:C 2.89114e-05
15 *806:D *138:14 0.000222878
16 *868:A *803:A 5.33005e-05
17 *868:B *803:A 1.58163e-05
18 *869:A *909:B1 2.21972e-05
19 *869:A *138:38 1.7614e-05
20 *872:B *806:B 9.60939e-05
21 *872:B *872:C 0.000567284
22 *909:A1 *138:14 9.71532e-05
23 *921:D *138:38 2.4579e-05
24 *57:20 *909:B1 6.10271e-05
25 *57:20 *138:38 4.11218e-05
26 *64:10 *872:C 5.30707e-05
27 *108:8 *138:8 1.07719e-05
28 *108:8 *138:38 1.10738e-05
*RES
1 *921:Q *138:8 13.55 
2 *138:8 *138:14 11.8571 
3 *138:14 *872:C 15.175 
4 *138:14 *806:B 10.675 
5 *138:8 *138:38 8.03571 
6 *138:38 *803:A 14.3357 
7 *138:38 *909:B1 16.6214 
*END

*D_NET *139 0.00612966
*CONN
*I *870:C I *D sky130_fd_sc_hd__and4bb_2
*I *860:A I *D sky130_fd_sc_hd__inv_2
*I *826:B I *D sky130_fd_sc_hd__and3_2
*I *825:A1 I *D sky130_fd_sc_hd__a31o_2
*I *822:A I *D sky130_fd_sc_hd__xnor2_2
*I *928:Q O *D sky130_fd_sc_hd__dfxtp_2
*CAP
1 *870:C 0.000347355
2 *860:A 0.000249461
3 *826:B 0.00016005
4 *825:A1 0.000103925
5 *822:A 4.26984e-05
6 *928:Q 0.000360708
7 *139:34 0.000800012
8 *139:23 0.000494427
9 *139:21 0.000469902
10 *139:10 0.000525953
11 *825:A1 *140:27 4.18895e-05
12 *825:A1 *140:33 5.71472e-05
13 *870:C *140:27 3.17148e-05
14 *870:C *140:33 0.000335492
15 *870:C *143:11 3.50931e-05
16 *139:10 *140:10 0.000126272
17 *139:10 *143:11 9.69397e-05
18 *139:10 *143:29 2.98475e-05
19 *139:21 *140:10 0.00022515
20 *139:21 *140:27 0.000115467
21 *139:34 *140:27 5.33005e-05
22 *822:B *825:A1 6.05161e-06
23 *822:B *870:C 4.98055e-06
24 *822:B *139:10 2.53112e-06
25 *822:B *139:21 0.000118125
26 *825:A2 *870:C 0.000339359
27 *826:C *826:B 0.000105689
28 *831:B1 *139:34 6.62983e-05
29 *930:D *870:C 0.000200406
30 *99:10 *860:A 5.52302e-05
31 *120:43 *826:B 5.33005e-05
32 *121:46 *870:C 0.00018372
33 *121:50 *826:B 4.43046e-05
34 *121:50 *860:A 0.000159453
35 *121:83 *860:A 8.16036e-05
36 *121:94 *860:A 5.80706e-06
*RES
1 *928:Q *139:10 21.2464 
2 *139:10 *822:A 14.3357 
3 *139:10 *139:21 4.375 
4 *139:21 *139:23 4.5 
5 *139:23 *825:A1 10.6571 
6 *139:23 *139:34 9.14286 
7 *139:34 *826:B 16.8893 
8 *139:34 *860:A 19.925 
9 *139:21 *870:C 33.0143 
*END

*D_NET *140 0.00486518
*CONN
*I *825:B1 I *D sky130_fd_sc_hd__a31o_2
*I *828:B I *D sky130_fd_sc_hd__nand2_2
*I *871:B I *D sky130_fd_sc_hd__or4b_2
*I *870:B_N I *D sky130_fd_sc_hd__and4bb_2
*I *826:A I *D sky130_fd_sc_hd__and3_2
*I *929:Q O *D sky130_fd_sc_hd__dfxtp_2
*CAP
1 *825:B1 0
2 *828:B 0.000250839
3 *871:B 0
4 *870:B_N 0
5 *826:A 0.000109713
6 *929:Q 0.000165391
7 *140:46 0.000442533
8 *140:33 0.000463762
9 *140:27 0.000383924
10 *140:10 0.00038696
11 *140:10 *143:11 0.000172808
12 *140:27 *143:11 7.2754e-05
13 *140:46 *832:A 8.49318e-05
14 *140:46 *870:D 7.83587e-05
15 *140:46 *142:19 5.59013e-05
16 *822:B *140:33 3.34295e-05
17 *825:A1 *140:27 4.18895e-05
18 *825:A1 *140:33 5.71472e-05
19 *825:A2 *140:33 9.58557e-05
20 *825:A2 *140:46 1.5942e-05
21 *827:C *826:A 4.84321e-05
22 *829:D *828:B 0.000139913
23 *831:A2 *826:A 0.00010096
24 *832:B *140:33 0.00026467
25 *832:B *140:46 0.000250201
26 *870:C *140:27 3.17148e-05
27 *870:C *140:33 0.000335492
28 *871:C *828:B 2.50627e-05
29 *871:C *140:46 1.07719e-05
30 *929:D *826:A 0.000143566
31 *930:D *140:33 1.87097e-05
32 *77:8 *826:A 3.4855e-05
33 *110:8 *140:46 1.07719e-05
34 *120:43 *826:A 1.77294e-05
35 *139:10 *140:10 0.000126272
36 *139:21 *140:10 0.00022515
37 *139:21 *140:27 0.000115467
38 *139:34 *140:27 5.33005e-05
*RES
1 *929:Q *140:10 18.7107 
2 *140:10 *826:A 17.2286 
3 *140:10 *140:27 7.39286 
4 *140:27 *140:33 13.0536 
5 *140:33 *870:B_N 13.8 
6 *140:33 *140:46 9.01786 
7 *140:46 *871:B 9.3 
8 *140:46 *828:B 13.5857 
9 *140:27 *825:B1 9.3 
*END

*D_NET *141 0.00444003
*CONN
*I *828:A I *D sky130_fd_sc_hd__nand2_2
*I *831:A1 I *D sky130_fd_sc_hd__o21a_2
*I *871:A I *D sky130_fd_sc_hd__or4b_2
*I *870:A_N I *D sky130_fd_sc_hd__and4bb_2
*I *930:Q O *D sky130_fd_sc_hd__dfxtp_2
*CAP
1 *828:A 3.4274e-05
2 *831:A1 0.000253299
3 *871:A 5.03897e-05
4 *870:A_N 0.000312934
5 *930:Q 0.000264482
6 *141:32 0.000287573
7 *141:8 0.000523831
8 *141:6 0.00042499
9 *831:A1 *143:11 6.07626e-05
10 *831:A1 *143:65 7.44918e-05
11 *870:A_N *930:CLK 9.09669e-05
12 *871:A *143:65 6.58675e-05
13 *141:6 *930:CLK 0.000387404
14 *141:8 *930:CLK 0.000211249
15 *829:D *828:A 0.000118903
16 *829:D *831:A1 0.000266092
17 *831:A2 *831:A1 1.02504e-05
18 *831:B1 *831:A1 0.000320038
19 *832:B *871:A 1.31516e-05
20 *871:C *871:A 0.000101545
21 *109:8 *870:A_N 0.00010096
22 *116:132 *828:A 0.000128154
23 *116:132 *831:A1 0.000128868
24 *116:132 *870:A_N 0.000112164
25 *121:46 *870:A_N 2.89016e-05
26 *121:50 *831:A1 9.10431e-06
27 *121:83 *831:A1 1.69115e-05
28 *121:94 *831:A1 4.24765e-05
*RES
1 *930:Q *141:6 13.1214 
2 *141:6 *141:8 2.17857 
3 *141:8 *870:A_N 15.1036 
4 *141:8 *871:A 19.9429 
5 *141:6 *141:32 4.5 
6 *141:32 *831:A1 22.1214 
7 *141:32 *828:A 15.4429 
*END

*D_NET *142 0.00114951
*CONN
*I *832:A I *D sky130_fd_sc_hd__xor2_2
*I *871:D_N I *D sky130_fd_sc_hd__or4b_2
*I *870:D I *D sky130_fd_sc_hd__and4bb_2
*I *931:Q O *D sky130_fd_sc_hd__dfxtp_2
*CAP
1 *832:A 0.00013278
2 *871:D_N 0
3 *870:D 3.39848e-05
4 *931:Q 0.000126116
5 *142:19 0.000157302
6 *142:8 0.000184623
7 *825:A2 *870:D 3.92757e-05
8 *825:A2 *142:19 1.08359e-05
9 *832:B *832:A 6.1684e-05
10 *833:C *832:A 0
11 *833:C *142:19 0
12 *110:8 *142:8 8.46829e-05
13 *110:20 *142:8 9.90367e-05
14 *140:46 *832:A 8.49318e-05
15 *140:46 *870:D 7.83587e-05
16 *140:46 *142:19 5.59013e-05
*RES
1 *931:Q *142:8 15.5679 
2 *142:8 *870:D 14.8357 
3 *142:8 *142:19 0.732143 
4 *142:19 *871:D_N 13.8 
5 *142:19 *832:A 16.8893 
*END

*D_NET *143 0.008555
*CONN
*I *945:A I *D sky130_fd_sc_hd__clkbuf_16
*I *944:A I *D sky130_fd_sc_hd__clkbuf_16
*I *942:A I *D sky130_fd_sc_hd__clkbuf_16
*I *943:A I *D sky130_fd_sc_hd__clkbuf_16
*I *941:X O *D sky130_fd_sc_hd__clkbuf_16
*CAP
1 *945:A 9.08505e-05
2 *944:A 0.000103605
3 *942:A 0.000100815
4 *943:A 0
5 *941:X 0
6 *143:79 0.000224001
7 *143:67 0.000530031
8 *143:65 0.00132803
9 *143:43 0.000977095
10 *143:29 0.000546072
11 *143:11 0.00192274
12 *143:6 0.00126884
13 *942:A *144:27 6.05161e-06
14 *942:A *148:100 5.0655e-05
15 *143:43 *144:8 6.53742e-05
16 *143:43 *148:100 7.02745e-05
17 *829:D *143:65 0.000219767
18 *831:A1 *143:11 6.07626e-05
19 *831:A1 *143:65 7.44918e-05
20 *831:A2 *143:11 7.73662e-05
21 *832:B *143:65 2.6655e-06
22 *870:C *143:11 3.50931e-05
23 *871:A *143:65 6.58675e-05
24 *871:C *143:65 1.18358e-05
25 *928:D *143:29 4.18589e-05
26 *929:D *143:11 0
27 *930:D *143:11 5.56943e-05
28 *930:D *143:65 0.000225449
29 *67:10 *143:29 2.73533e-05
30 *116:132 *143:65 0
31 *121:50 *143:11 0
32 *139:10 *143:11 9.69397e-05
33 *139:10 *143:29 2.98475e-05
34 *140:10 *143:11 0.000172808
35 *140:27 *143:11 7.2754e-05
*RES
1 *941:X *143:6 13.8 
2 *143:6 *143:11 12.2679 
3 *143:11 *143:29 22.4958 
4 *143:29 *943:A 13.8 
5 *143:11 *143:43 18.3839 
6 *143:43 *942:A 10.8625 
7 *143:6 *143:65 20.4821 
8 *143:65 *143:67 7.13393 
9 *143:67 *944:A 11.0411 
10 *143:65 *143:79 2.08929 
11 *143:79 *945:A 10.7464 
*END

*D_NET *144 0.0115649
*CONN
*I *910:CLK I *D sky130_fd_sc_hd__dfxtp_2
*I *932:CLK I *D sky130_fd_sc_hd__dfxtp_2
*I *937:CLK I *D sky130_fd_sc_hd__dfxtp_2
*I *938:CLK I *D sky130_fd_sc_hd__dfxtp_2
*I *933:CLK I *D sky130_fd_sc_hd__dfxtp_2
*I *935:CLK I *D sky130_fd_sc_hd__dfxtp_2
*I *936:CLK I *D sky130_fd_sc_hd__dfxtp_2
*I *946:A I *D sky130_fd_sc_hd__clkbuf_8
*I *942:X O *D sky130_fd_sc_hd__clkbuf_16
*CAP
1 *910:CLK 0.000326467
2 *932:CLK 0
3 *937:CLK 0
4 *938:CLK 0.000224054
5 *933:CLK 0.000480775
6 *935:CLK 0.000116685
7 *936:CLK 3.47624e-05
8 *946:A 5.67769e-05
9 *942:X 0.000436917
10 *144:80 0.000388909
11 *144:44 0.000954877
12 *144:35 0.000794032
13 *144:31 0.000671826
14 *144:27 0.000486866
15 *144:10 0.00053337
16 *144:8 0.000535005
17 *910:CLK *960:A 2.08435e-05
18 *933:CLK *838:A1 0.000269428
19 *933:CLK *841:A0 9.22015e-05
20 *933:CLK *841:A1 0.000183022
21 *933:CLK *846:A 7.17235e-05
22 *935:CLK *844:A0 5.83233e-05
23 *935:CLK *846:A 9.69119e-06
24 *935:CLK *164:8 7.83659e-05
25 *938:CLK *855:A 0.000358205
26 *144:8 *148:100 0.000351985
27 *144:27 *148:100 0.00018103
28 *144:27 *148:108 0.000778612
29 *144:35 *855:A 1.00887e-05
30 *144:35 *148:139 0.000534403
31 *144:44 *846:A 0.000140933
32 *838:S *933:CLK 0.0002165
33 *841:S *933:CLK 0.000141729
34 *842:A0 *933:CLK 0.000354478
35 *845:A0 *935:CLK 0
36 *846:B *935:CLK 3.17148e-05
37 *847:S *144:35 0
38 *848:A0 *144:35 0
39 *848:S *935:CLK 0
40 *849:B *144:35 0
41 *852:B *144:35 0.000101178
42 *855:B *938:CLK 3.2923e-05
43 *880:A1 *910:CLK 0.000126439
44 *880:B1 *910:CLK 0
45 *910:D *910:CLK 7.6644e-05
46 *932:D *910:CLK 3.45899e-05
47 *932:D *946:A 0.000172032
48 *932:D *144:10 5.14352e-05
49 *932:D *144:80 0.000126416
50 *936:D *144:35 0
51 *936:D *144:44 0.000103323
52 *937:D *144:27 0.000115756
53 *937:D *144:31 5.43865e-05
54 *938:D *938:CLK 9.58689e-05
55 *942:A *144:27 6.05161e-06
56 *82:39 *144:35 0
57 *104:37 *946:A 9.22693e-06
58 *104:37 *144:10 9.20464e-06
59 *104:37 *144:27 0.000315002
60 *104:43 *946:A 0.00014442
61 *143:43 *144:8 6.53742e-05
*RES
1 *942:X *144:8 19.675 
2 *144:8 *144:10 0.732143 
3 *144:10 *946:A 16.05 
4 *144:10 *144:27 17.9107 
5 *144:27 *144:31 5.44643 
6 *144:31 *144:35 14.3393 
7 *144:35 *936:CLK 9.83571 
8 *144:35 *144:44 6.28571 
9 *144:44 *935:CLK 20.55 
10 *144:44 *933:CLK 21.7464 
11 *144:31 *938:CLK 19.7286 
12 *144:27 *937:CLK 9.3 
13 *144:8 *144:80 1.64286 
14 *144:80 *932:CLK 13.8 
15 *144:80 *910:CLK 19.8536 
*END

*D_NET *145 0.00960871
*CONN
*I *922:CLK I *D sky130_fd_sc_hd__dfxtp_2
*I *923:CLK I *D sky130_fd_sc_hd__dfxtp_2
*I *929:CLK I *D sky130_fd_sc_hd__dfxtp_2
*I *926:CLK I *D sky130_fd_sc_hd__dfxtp_2
*I *927:CLK I *D sky130_fd_sc_hd__dfxtp_2
*I *928:CLK I *D sky130_fd_sc_hd__dfxtp_2
*I *934:CLK I *D sky130_fd_sc_hd__dfxtp_2
*I *924:CLK I *D sky130_fd_sc_hd__dfxtp_2
*I *925:CLK I *D sky130_fd_sc_hd__dfxtp_2
*I *943:X O *D sky130_fd_sc_hd__clkbuf_16
*CAP
1 *922:CLK 0.000257622
2 *923:CLK 0.000122384
3 *929:CLK 0.000252333
4 *926:CLK 0.000123996
5 *927:CLK 0.000165472
6 *928:CLK 0
7 *934:CLK 0.000448928
8 *924:CLK 0.000297673
9 *925:CLK 6.24307e-05
10 *943:X 0.000441403
11 *145:91 0.000396799
12 *145:89 0.00051299
13 *145:61 0.000439278
14 *145:59 0.000383096
15 *145:27 0.000746601
16 *145:16 0.000535529
17 *145:8 0.000914502
18 *809:B1_N *923:CLK 5.49657e-05
19 *809:B1_N *145:91 1.6806e-05
20 *811:A *929:CLK 0.000208837
21 *811:C *929:CLK 9.75679e-05
22 *811:D *929:CLK 2.85234e-05
23 *812:A_N *145:16 0
24 *816:A3 *145:61 0.000213651
25 *818:B *145:61 0.000101771
26 *819:A3 *927:CLK 0.00022497
27 *819:A4 *927:CLK 0.000201704
28 *819:A4 *145:61 0.000196269
29 *820:B *926:CLK 1.58163e-05
30 *821:A2 *926:CLK 2.44318e-05
31 *821:B1 *927:CLK 3.67142e-05
32 *874:A *927:CLK 3.44313e-05
33 *923:D *923:CLK 9.8126e-05
34 *924:D *924:CLK 0
35 *925:D *924:CLK 1.76039e-05
36 *925:D *934:CLK 5.33978e-05
37 *925:D *145:16 1.64343e-05
38 *62:18 *923:CLK 5.49995e-05
39 *64:26 *926:CLK 0.000266473
40 *67:10 *929:CLK 6.07474e-05
41 *67:10 *145:16 0
42 *113:10 *145:89 1.67095e-05
43 *120:55 *922:CLK 2.02794e-05
44 *120:55 *923:CLK 3.11713e-05
45 *120:55 *145:61 9.10856e-05
46 *120:55 *145:89 0.000144643
47 *120:55 *145:91 1.55857e-05
48 *120:57 *927:CLK 1.17968e-05
49 *120:57 *145:61 8.56716e-05
50 *124:14 *922:CLK 1.4796e-05
51 *124:14 *929:CLK 0.000210447
52 *125:38 *922:CLK 0.000213044
53 *125:46 *922:CLK 0.000139337
54 *125:46 *929:CLK 6.94937e-05
55 *128:18 *927:CLK 0.000396898
56 *129:8 *927:CLK 2.24763e-05
*RES
1 *943:X *145:8 16.0143 
2 *145:8 *145:16 16.7857 
3 *145:16 *925:CLK 10.2643 
4 *145:16 *145:27 4.5 
5 *145:27 *924:CLK 19.0857 
6 *145:27 *934:CLK 21.6214 
7 *145:8 *928:CLK 9.3 
8 *943:X *145:59 13.8 
9 *145:59 *145:61 5.58929 
10 *145:61 *927:CLK 19.9964 
11 *145:61 *926:CLK 16.8 
12 *145:59 *145:89 4.88393 
13 *145:89 *145:91 0.580357 
14 *145:91 *929:CLK 20.9071 
15 *145:91 *923:CLK 16.5857 
16 *145:89 *922:CLK 18.8625 
*END

*D_NET *146 0.00919149
*CONN
*I *915:CLK I *D sky130_fd_sc_hd__dfxtp_2
*I *914:CLK I *D sky130_fd_sc_hd__dfxtp_2
*I *947:A I *D sky130_fd_sc_hd__clkbuf_4
*I *911:CLK I *D sky130_fd_sc_hd__dfxtp_2
*I *931:CLK I *D sky130_fd_sc_hd__dfxtp_2
*I *940:CLK I *D sky130_fd_sc_hd__dfxtp_2
*I *913:CLK I *D sky130_fd_sc_hd__dfxtp_2
*I *912:CLK I *D sky130_fd_sc_hd__dfxtp_2
*I *939:CLK I *D sky130_fd_sc_hd__dfxtp_2
*I *944:X O *D sky130_fd_sc_hd__clkbuf_16
*CAP
1 *915:CLK 0.000331895
2 *914:CLK 0
3 *947:A 0
4 *911:CLK 0.000135582
5 *931:CLK 0.000210544
6 *940:CLK 0
7 *913:CLK 7.81057e-05
8 *912:CLK 3.72884e-05
9 *939:CLK 0.000654539
10 *944:X 0
11 *146:97 0.000685967
12 *146:60 0.000529841
13 *146:33 0.000569264
14 *146:16 0.00110841
15 *146:14 0.000544419
16 *146:12 0.000858811
17 *146:8 0.000253637
18 *146:6 0.000477032
19 *913:CLK *886:A1 7.05143e-06
20 *913:CLK *150:73 8.53977e-05
21 *915:CLK *891:A1 2.74273e-05
22 *915:CLK *892:A 0.00014258
23 *939:CLK *150:32 0
24 *146:14 *882:A1 4.76576e-05
25 *146:14 *150:28 0.000394376
26 *146:14 *168:8 4.53889e-05
27 *146:33 *150:32 0
28 *146:33 *150:52 0
29 *146:33 *150:65 0
30 *146:33 *150:73 0.000117378
31 *833:C *931:CLK 7.27966e-05
32 *858:B *939:CLK 8.12952e-05
33 *886:B1 *146:33 0
34 *890:A *146:33 0.000148851
35 *892:B *915:CLK 1.5872e-05
36 *892:C *915:CLK 0.000116007
37 *892:D *915:CLK 0.000139202
38 *893:C *146:97 0.00017309
39 *911:D *911:CLK 4.48612e-05
40 *911:D *146:12 4.46186e-06
41 *911:D *146:60 0.000226867
42 *913:D *913:CLK 3.5707e-05
43 *914:D *146:97 3.92924e-05
44 *931:D *931:CLK 5.71472e-05
45 *939:D *939:CLK 0.000122188
46 *940:D *146:14 0.000277555
47 *950:A *939:CLK 6.74911e-05
48 *4:12 *913:CLK 0
49 *4:12 *939:CLK 0
50 *4:12 *146:33 0
51 *51:8 *915:CLK 0
52 *110:20 *931:CLK 1.59373e-05
53 *120:141 *931:CLK 4.50149e-05
54 *120:150 *931:CLK 0.000165262
55 *120:150 *146:8 0
56 *120:150 *146:12 0
57 *120:150 *146:97 0
58 *120:163 *146:97 0
*RES
1 *944:X *146:6 13.8 
2 *146:6 *146:8 2.25 
3 *146:8 *146:12 6.44643 
4 *146:12 *146:14 12.4464 
5 *146:14 *146:16 4.5 
6 *146:16 *939:CLK 24.4964 
7 *146:16 *146:33 9.83929 
8 *146:33 *912:CLK 14.3357 
9 *146:33 *913:CLK 16.05 
10 *146:14 *940:CLK 9.3 
11 *146:12 *146:60 3.42857 
12 *146:60 *931:CLK 23.3357 
13 *146:60 *911:CLK 11.4964 
14 *146:8 *947:A 13.8 
15 *146:6 *146:97 7.08929 
16 *146:97 *914:CLK 13.8 
17 *146:97 *915:CLK 20.6929 
*END

*D_NET *147 0.0112225
*CONN
*I *920:CLK I *D sky130_fd_sc_hd__dfxtp_2
*I *916:CLK I *D sky130_fd_sc_hd__dfxtp_2
*I *917:CLK I *D sky130_fd_sc_hd__dfxtp_2
*I *919:CLK I *D sky130_fd_sc_hd__dfxtp_2
*I *948:A I *D sky130_fd_sc_hd__clkbuf_8
*I *918:CLK I *D sky130_fd_sc_hd__dfxtp_2
*I *921:CLK I *D sky130_fd_sc_hd__dfxtp_2
*I *930:CLK I *D sky130_fd_sc_hd__dfxtp_2
*I *945:X O *D sky130_fd_sc_hd__clkbuf_16
*CAP
1 *920:CLK 0.0003497
2 *916:CLK 0.00011056
3 *917:CLK 0.000405411
4 *919:CLK 0.000211636
5 *948:A 0.000191947
6 *918:CLK 4.26984e-05
7 *921:CLK 0.000621482
8 *930:CLK 0.000365631
9 *945:X 0.000509098
10 *147:78 0.00107824
11 *147:72 0.000951326
12 *147:61 0.000470645
13 *147:16 0.00116362
14 *147:12 0.000299919
15 *147:10 0.000562097
16 *867:B *147:78 2.44318e-05
17 *870:A_N *930:CLK 9.09669e-05
18 *875:D *920:CLK 2.28428e-05
19 *875:D *147:61 7.73067e-05
20 *875:D *147:72 1.46624e-05
21 *876:B *921:CLK 2.32625e-05
22 *876:D_N *921:CLK 0.000117543
23 *897:A2 *916:CLK 1.59782e-05
24 *900:A1 *916:CLK 0
25 *901:A3 *948:A 8.90199e-05
26 *901:A3 *147:10 0
27 *902:A *147:61 0.000125724
28 *906:A *919:CLK 0.000142856
29 *906:A *147:78 0.000573176
30 *906:B *147:61 0
31 *906:C *920:CLK 1.92905e-05
32 *907:A *920:CLK 0
33 *908:B1 *920:CLK 2.89016e-05
34 *917:D *917:CLK 1.64343e-05
35 *919:D *919:CLK 0.000186662
36 *930:D *930:CLK 8.82363e-05
37 *47:12 *916:CLK 9.91086e-05
38 *51:29 *917:CLK 0
39 *51:39 *917:CLK 0.000118419
40 *51:39 *147:78 3.00323e-05
41 *51:48 *147:78 5.52238e-05
42 *53:8 *917:CLK 0.00040279
43 *57:14 *147:10 2.19353e-05
44 *59:16 *920:CLK 6.97409e-05
45 *108:8 *921:CLK 3.05446e-05
46 *112:14 *147:10 0.000173804
47 *112:14 *147:12 0.00015134
48 *112:14 *147:16 0.000370533
49 *115:14 *921:CLK 5.52302e-05
50 *116:132 *930:CLK 4.80951e-05
51 *132:47 *920:CLK 0
52 *132:51 *147:61 0
53 *134:8 *147:78 5.74499e-06
54 *138:38 *921:CLK 0
55 *141:6 *930:CLK 0.000387404
56 *141:8 *930:CLK 0.000211249
*RES
1 *945:X *147:10 18.2286 
2 *147:10 *147:12 1.94643 
3 *147:12 *147:16 9.17857 
4 *147:16 *930:CLK 18.0679 
5 *147:16 *921:CLK 19.3 
6 *147:12 *918:CLK 14.3357 
7 *147:10 *948:A 17.2107 
8 *945:X *147:61 18.4786 
9 *147:61 *919:CLK 18.4429 
10 *147:61 *147:72 0.732143 
11 *147:72 *147:78 12.4464 
12 *147:78 *917:CLK 17.2464 
13 *147:78 *916:CLK 20.2464 
14 *147:72 *920:CLK 20.3893 
*END

*D_NET *148 0.0161853
*CONN
*I *856:B1 I *D sky130_fd_sc_hd__a31o_2
*I *880:C1 I *D sky130_fd_sc_hd__a211o_2
*I *883:A I *D sky130_fd_sc_hd__nor2_2
*I *849:A I *D sky130_fd_sc_hd__or2_2
*I *855:A I *D sky130_fd_sc_hd__or2_2
*I *852:A I *D sky130_fd_sc_hd__or2_2
*I *846:A I *D sky130_fd_sc_hd__or2_2
*I *837:A I *D sky130_fd_sc_hd__or2_2
*I *840:A I *D sky130_fd_sc_hd__or2_2
*I *843:A I *D sky130_fd_sc_hd__or2_2
*I *864:A I *D sky130_fd_sc_hd__inv_2
*I *949:X O *D sky130_fd_sc_hd__clkdlybuf4s25_1
*CAP
1 *856:B1 0
2 *880:C1 3.83244e-05
3 *883:A 0
4 *849:A 0
5 *855:A 0.000166871
6 *852:A 0
7 *846:A 0.000368571
8 *837:A 0
9 *840:A 2.89337e-05
10 *843:A 0.000362276
11 *864:A 0.000108068
12 *949:X 3.67949e-05
13 *148:139 0.000615649
14 *148:133 0.000625009
15 *148:108 0.00119844
16 *148:100 0.000855236
17 *148:61 0.000497812
18 *148:57 0.000338907
19 *148:47 0.00057459
20 *148:45 0.00052257
21 *148:30 0.00154283
22 *148:8 0.001128
23 *843:A *842:A1 2.92927e-05
24 *843:A *162:10 8.08925e-05
25 *148:8 *856:A3 3.18676e-05
26 *148:30 *853:A0 0
27 *148:30 *856:A2 0
28 *148:30 *856:A3 0.000103267
29 *148:30 *866:B 9.83442e-05
30 *148:30 *167:12 0.000272371
31 *148:61 *162:10 3.006e-05
32 *148:108 *847:A0 0
33 *835:S *840:A 5.49489e-05
34 *836:A0 *148:47 9.48258e-05
35 *836:A0 *148:57 0.000131197
36 *837:B *148:47 0.000281479
37 *837:B *148:57 0.000442013
38 *837:B *148:61 1.00332e-05
39 *845:A0 *846:A 0
40 *845:S *148:133 5.52302e-05
41 *846:B *846:A 0
42 *848:S *846:A 0.000134748
43 *856:A1 *148:8 1.97695e-05
44 *857:A3 *148:30 0.00014183
45 *857:B1 *148:30 4.04353e-05
46 *866:A *148:30 9.97164e-05
47 *878:A1 *148:45 0.000222028
48 *878:A2 *148:45 0.000170769
49 *878:B1 *148:45 1.721e-05
50 *880:A1 *148:45 0
51 *880:A2 *880:C1 9.83388e-05
52 *880:B1 *148:45 0.000146543
53 *880:B1 *148:47 3.4846e-06
54 *884:B *864:A 0
55 *933:CLK *846:A 7.17235e-05
56 *934:D *843:A 5.65955e-05
57 *935:CLK *846:A 9.69119e-06
58 *938:CLK *855:A 0.000358205
59 *942:A *148:100 5.0655e-05
60 *4:18 *864:A 5.93878e-05
61 *4:18 *148:30 0.00019149
62 *82:37 *148:108 0.000175281
63 *82:39 *846:A 2.59004e-05
64 *82:39 *148:108 0.000327111
65 *82:95 *148:45 0.000133793
66 *100:32 *148:30 1.59373e-05
67 *100:45 *148:30 0.00039997
68 *100:69 *148:30 1.32056e-05
69 *103:8 *864:A 5.65955e-05
70 *104:37 *148:100 9.6192e-05
71 *104:43 *843:A 0
72 *104:43 *148:61 0
73 *104:43 *148:100 1.00332e-05
74 *104:45 *843:A 0
75 *105:25 *864:A 2.12005e-05
76 *109:25 *864:A 3.98524e-05
77 *109:25 *148:45 5.59013e-05
78 *116:20 *864:A 3.34295e-05
79 *120:18 *148:100 4.12798e-05
80 *120:18 *148:108 5.49544e-05
81 *143:43 *148:100 7.02745e-05
82 *144:8 *148:100 0.000351985
83 *144:27 *148:100 0.00018103
84 *144:27 *148:108 0.000778612
85 *144:35 *855:A 1.00887e-05
86 *144:35 *148:139 0.000534403
87 *144:44 *846:A 0.000140933
*RES
1 *949:X *148:8 10.2643 
2 *148:8 *148:30 40.6607 
3 *148:30 *864:A 16.3893 
4 *148:30 *148:45 8.85714 
5 *148:45 *148:47 4.375 
6 *148:47 *148:57 11.2857 
7 *148:57 *148:61 6.44643 
8 *148:61 *843:A 20.2821 
9 *148:61 *840:A 14.3357 
10 *148:57 *837:A 9.3 
11 *148:47 *148:100 19.2857 
12 *148:100 *148:108 18.9464 
13 *148:108 *846:A 21.4964 
14 *148:108 *148:133 7.08929 
15 *148:133 *148:139 13.8929 
16 *148:139 *852:A 13.8 
17 *148:139 *855:A 18.4786 
18 *148:133 *849:A 9.3 
19 *148:100 *883:A 9.3 
20 *148:45 *880:C1 14.7464 
21 *148:8 *856:B1 9.3 
*END

*D_NET *149 0.00435964
*CONN
*I *882:A2 I *D sky130_fd_sc_hd__o211a_2
*I *866:B I *D sky130_fd_sc_hd__nand2_2
*I *865:B I *D sky130_fd_sc_hd__and2_2
*I *856:A2 I *D sky130_fd_sc_hd__a31o_2
*I *950:X O *D sky130_fd_sc_hd__clkdlybuf4s25_1
*CAP
1 *882:A2 0.000159261
2 *866:B 2.08488e-05
3 *865:B 0
4 *856:A2 0.000200529
5 *950:X 0.000313665
6 *149:16 0.000478894
7 *149:10 0.000588673
8 *149:6 0.000762385
9 *856:A2 *853:A0 3.9838e-05
10 *856:A2 *856:A3 4.35323e-05
11 *882:A2 *882:A1 1.38106e-05
12 *149:6 *861:A 0.00014285
13 *856:A1 *856:A2 0.000182362
14 *857:A2 *149:6 0.000139913
15 *857:A3 *149:10 0
16 *858:A *856:A2 0.000112688
17 *858:A *149:16 0.000105163
18 *4:18 *866:B 5.93954e-05
19 *100:23 *856:A2 5.52302e-05
20 *100:23 *149:16 8.76257e-05
21 *100:32 *149:16 0.000407374
22 *110:20 *882:A2 0.000183734
23 *110:20 *149:6 0.000163519
24 *116:50 *149:10 0
25 *148:30 *856:A2 0
26 *148:30 *866:B 9.83442e-05
*RES
1 *950:X *149:6 15.175 
2 *149:6 *149:10 9.17857 
3 *149:10 *149:16 11.3929 
4 *149:16 *856:A2 22.8 
5 *149:16 *865:B 9.3 
6 *149:10 *866:B 14.7464 
7 *149:6 *882:A2 12.7286 
*END

*D_NET *150 0.00879028
*CONN
*I *889:A1 I *D sky130_fd_sc_hd__a311o_2
*I *888:A1 I *D sky130_fd_sc_hd__a21oi_2
*I *892:A I *D sky130_fd_sc_hd__and4_2
*I *891:A1 I *D sky130_fd_sc_hd__a31o_2
*I *886:A1 I *D sky130_fd_sc_hd__a21oi_2
*I *885:A1 I *D sky130_fd_sc_hd__o21ai_2
*I *861:A I *D sky130_fd_sc_hd__inv_2
*I *959:A I *D sky130_fd_sc_hd__clkdlybuf4s25_1
*I *882:A1 I *D sky130_fd_sc_hd__o211a_2
*I *911:Q O *D sky130_fd_sc_hd__dfxtp_2
*CAP
1 *889:A1 0.000141995
2 *888:A1 0
3 *892:A 6.93983e-05
4 *891:A1 7.18671e-05
5 *886:A1 0.000189072
6 *885:A1 5.71128e-05
7 *861:A 7.48804e-05
8 *959:A 0.000233528
9 *882:A1 0.000227481
10 *911:Q 0.000780612
11 *150:92 0.000774402
12 *150:73 0.00103031
13 *150:69 0.000344094
14 *150:65 0.000363575
15 *150:52 0.000335959
16 *150:32 0.000503938
17 *150:28 0.000941923
18 *150:32 *857:A1 0
19 *150:32 *859:A1 0
20 *882:A2 *882:A1 1.38106e-05
21 *882:B1 *882:A1 4.46186e-06
22 *885:A2 *885:A1 5.71472e-05
23 *886:A2 *886:A1 9.90367e-05
24 *886:B1 *885:A1 9.90431e-05
25 *886:B1 *150:52 3.34295e-05
26 *886:B1 *150:65 0.000176234
27 *886:B1 *150:73 0
28 *888:A2 *889:A1 9.41642e-05
29 *888:A2 *150:69 0.00026533
30 *888:B1 *889:A1 1.56e-05
31 *889:B1 *889:A1 1.04232e-05
32 *889:C1 *150:52 0
33 *890:A *150:69 1.33343e-05
34 *892:C *891:A1 3.42301e-05
35 *892:C *892:A 0.000257794
36 *892:C *150:92 9.66977e-05
37 *911:D *882:A1 3.34672e-05
38 *912:D *886:A1 8.67803e-05
39 *912:D *150:73 5.0725e-05
40 *912:D *150:92 2.09897e-05
41 *913:CLK *886:A1 7.05143e-06
42 *913:CLK *150:73 8.53977e-05
43 *915:CLK *891:A1 2.74273e-05
44 *915:CLK *892:A 0.00014258
45 *939:CLK *150:32 0
46 *940:D *150:28 5.33005e-05
47 *940:D *150:32 3.17148e-05
48 *940:D *150:52 0.00010326
49 *950:A *150:32 0
50 *110:20 *882:A1 1.28809e-05
51 *121:16 *150:52 0
52 *130:18 *891:A1 4.13122e-06
53 *130:22 *889:A1 1.74352e-05
54 *146:14 *882:A1 4.76576e-05
55 *146:14 *150:28 0.000394376
56 *146:33 *150:32 0
57 *146:33 *150:52 0
58 *146:33 *150:65 0
59 *146:33 *150:73 0.000117378
60 *149:6 *861:A 0.00014285
*RES
1 *911:Q *882:A1 31.033 
2 *911:Q *150:28 21.3179 
3 *150:28 *150:32 7.96429 
4 *150:32 *959:A 13.1571 
5 *150:32 *861:A 11.0679 
6 *150:28 *150:52 4.07143 
7 *150:52 *885:A1 15.1571 
8 *150:52 *150:65 6.75 
9 *150:65 *150:69 3.01786 
10 *150:69 *150:73 9.33036 
11 *150:73 *886:A1 18.1661 
12 *150:73 *150:92 14.4732 
13 *150:92 *891:A1 19.6393 
14 *150:92 *892:A 11.8893 
15 *150:69 *888:A1 9.3 
16 *150:65 *889:A1 12.05 
*END

*D_NET *151 0.00282637
*CONN
*I *960:A I *D sky130_fd_sc_hd__clkdlybuf4s25_1
*I *878:C1 I *D sky130_fd_sc_hd__o211a_2
*I *910:Q O *D sky130_fd_sc_hd__dfxtp_2
*CAP
1 *960:A 0.00116318
2 *878:C1 0.000102715
3 *910:Q 0
4 *151:4 0.0012659
5 *855:B *960:A 3.05446e-05
6 *879:B *878:C1 0
7 *910:CLK *960:A 2.08435e-05
8 *910:D *960:A 1.64343e-05
9 *82:29 *960:A 5.33334e-05
10 *82:37 *960:A 4.35452e-05
11 *82:95 *878:C1 0.000129868
*RES
1 *910:Q *151:4 9.3 
2 *151:4 *878:C1 20.4786 
3 *151:4 *960:A 27.5321 
*END

*D_NET *152 0.00138708
*CONN
*I *835:A1 I *D sky130_fd_sc_hd__mux2_1
*I *951:X O *D sky130_fd_sc_hd__clkdlybuf4s25_1
*CAP
1 *835:A1 0.000461659
2 *951:X 0.000461659
3 *842:S *835:A1 0
4 *933:D *835:A1 7.50601e-05
5 *934:D *835:A1 0.00038501
6 *951:A *835:A1 3.69047e-06
*RES
1 *951:X *835:A1 35.8679 
*END

*D_NET *153 0.00178733
*CONN
*I *838:A1 I *D sky130_fd_sc_hd__mux2_1
*I *952:X O *D sky130_fd_sc_hd__clkdlybuf4s25_1
*CAP
1 *838:A1 0.000658476
2 *952:X 0.000658476
3 *838:A1 *161:12 2.72859e-05
4 *839:A0 *838:A1 0.000156038
5 *842:S *838:A1 0
6 *933:CLK *838:A1 0.000269428
7 *933:D *838:A1 1.76204e-05
*RES
1 *952:X *838:A1 40.1536 
*END

*D_NET *154 0.00091959
*CONN
*I *841:A1 I *D sky130_fd_sc_hd__mux2_1
*I *953:X O *D sky130_fd_sc_hd__clkdlybuf4s25_1
*CAP
1 *841:A1 0.000245903
2 *953:X 0.000245903
3 *841:A1 *841:A0 5.65955e-05
4 *844:S *841:A1 0.000188167
5 *933:CLK *841:A1 0.000183022
*RES
1 *953:X *841:A1 33.1357 
*END

*D_NET *155 0.00112461
*CONN
*I *844:A1 I *D sky130_fd_sc_hd__mux2_1
*I *954:X O *D sky130_fd_sc_hd__clkdlybuf4s25_1
*CAP
1 *844:A1 0.000280487
2 *954:X 0.000280487
3 *844:A1 *844:A0 5.52238e-05
4 *844:S *844:A1 0.000190302
5 *954:A *844:A1 0.000318107
*RES
1 *954:X *844:A1 24.8857 
*END

*D_NET *156 0.000516607
*CONN
*I *847:A1 I *D sky130_fd_sc_hd__mux2_1
*I *955:X O *D sky130_fd_sc_hd__clkdlybuf4s25_1
*CAP
1 *847:A1 0.000148804
2 *955:X 0.000148804
3 *847:A1 *847:A0 5.33005e-05
4 *847:S *847:A1 2.28499e-05
5 *848:A0 *847:A1 0.00014285
*RES
1 *955:X *847:A1 21.6 
*END

*D_NET *157 0.000329219
*CONN
*I *850:A1 I *D sky130_fd_sc_hd__mux2_1
*I *956:X O *D sky130_fd_sc_hd__clkdlybuf4s25_1
*CAP
1 *850:A1 0.000164609
2 *956:X 0.000164609
*RES
1 *956:X *850:A1 21.1893 
*END

*D_NET *158 0.000549249
*CONN
*I *853:A1 I *D sky130_fd_sc_hd__mux2_1
*I *957:X O *D sky130_fd_sc_hd__clkdlybuf4s25_1
*CAP
1 *853:A1 0.000165787
2 *957:X 0.000165787
3 *854:A0 *853:A1 0.0001399
4 *104:16 *853:A1 7.77751e-05
*RES
1 *957:X *853:A1 22.0107 
*END

*D_NET *159 0.000645016
*CONN
*I *856:A3 I *D sky130_fd_sc_hd__a31o_2
*I *958:X O *D sky130_fd_sc_hd__clkdlybuf4s25_1
*CAP
1 *856:A3 0.0001747
2 *958:X 0.0001747
3 *856:A1 *856:A3 0.00011695
4 *856:A2 *856:A3 4.35323e-05
5 *148:8 *856:A3 3.18676e-05
6 *148:30 *856:A3 0.000103267
*RES
1 *958:X *856:A3 31.6714 
*END

*D_NET *160 0.000806054
*CONN
*I *879:A I *D sky130_fd_sc_hd__or2_2
*I *836:A1 I *D sky130_fd_sc_hd__mux2_1
*I *932:Q O *D sky130_fd_sc_hd__dfxtp_2
*CAP
1 *879:A 4.01026e-05
2 *836:A1 2.1857e-05
3 *932:Q 0.000106878
4 *160:10 0.000168837
5 *880:A2 *836:A1 0.000141935
6 *880:A2 *879:A 4.25684e-05
7 *82:95 *836:A1 0.000100165
8 *82:106 *836:A1 4.17702e-05
9 *82:106 *879:A 0.000141941
*RES
1 *932:Q *160:10 19.9429 
2 *160:10 *836:A1 10.6571 
3 *160:10 *879:A 10.6571 
*END

*D_NET *161 0.00151702
*CONN
*I *839:A1 I *D sky130_fd_sc_hd__mux2_1
*I *835:A0 I *D sky130_fd_sc_hd__mux2_1
*I *933:Q O *D sky130_fd_sc_hd__dfxtp_2
*CAP
1 *839:A1 0
2 *835:A0 0.000206219
3 *933:Q 0.000242861
4 *161:12 0.00044908
5 *835:S *835:A0 9.90431e-05
6 *838:A1 *161:12 2.72859e-05
7 *839:A0 *161:12 0.000150625
8 *839:S *835:A0 4.58194e-05
9 *840:B *835:A0 0.000274294
10 *933:D *835:A0 9.99644e-06
11 *82:106 *161:12 1.17968e-05
*RES
1 *933:Q *161:12 22.3179 
2 *161:12 *835:A0 13.9429 
3 *161:12 *839:A1 9.3 
*END

*D_NET *162 0.00149107
*CONN
*I *838:A0 I *D sky130_fd_sc_hd__mux2_1
*I *842:A1 I *D sky130_fd_sc_hd__mux2_1
*I *934:Q O *D sky130_fd_sc_hd__dfxtp_2
*CAP
1 *838:A0 6.59684e-05
2 *842:A1 0.000105231
3 *934:Q 0.000255643
4 *162:10 0.000426842
5 *836:A0 *162:10 8.68665e-05
6 *842:A0 *838:A0 9.90367e-05
7 *842:A0 *842:A1 0.000135506
8 *842:A0 *162:10 3.17148e-05
9 *843:A *842:A1 2.92927e-05
10 *843:A *162:10 8.08925e-05
11 *934:D *842:A1 8.55724e-05
12 *934:D *162:10 5.84454e-05
13 *148:61 *162:10 3.006e-05
*RES
1 *934:Q *162:10 19.3179 
2 *162:10 *842:A1 16.4964 
3 *162:10 *838:A0 14.7464 
*END

*D_NET *163 0.00167302
*CONN
*I *845:A1 I *D sky130_fd_sc_hd__mux2_1
*I *841:A0 I *D sky130_fd_sc_hd__mux2_1
*I *935:Q O *D sky130_fd_sc_hd__dfxtp_2
*CAP
1 *845:A1 0.000345846
2 *841:A0 0.000155037
3 *935:Q 0.000240084
4 *163:10 0.000740967
5 *841:A1 *841:A0 5.65955e-05
6 *845:A0 *845:A1 0
7 *845:S *845:A1 4.22908e-05
8 *933:CLK *841:A0 9.22015e-05
9 *935:D *845:A1 0
10 *935:D *163:10 0
*RES
1 *935:Q *163:10 16.6036 
2 *163:10 *841:A0 15.9786 
3 *163:10 *845:A1 19.675 
*END

*D_NET *164 0.00120551
*CONN
*I *848:A1 I *D sky130_fd_sc_hd__mux2_1
*I *844:A0 I *D sky130_fd_sc_hd__mux2_1
*I *936:Q O *D sky130_fd_sc_hd__dfxtp_2
*CAP
1 *848:A1 0.000153197
2 *844:A0 0.000276946
3 *936:Q 4.41581e-05
4 *164:8 0.000474301
5 *844:A1 *844:A0 5.52238e-05
6 *844:S *844:A0 1.39841e-05
7 *845:A0 *844:A0 0
8 *848:S *844:A0 0
9 *848:S *848:A1 1.92905e-05
10 *848:S *164:8 0
11 *935:CLK *844:A0 5.83233e-05
12 *935:CLK *164:8 7.83659e-05
13 *954:A *844:A0 3.17163e-05
*RES
1 *936:Q *164:8 14.8357 
2 *164:8 *844:A0 18.8179 
3 *164:8 *848:A1 15.5679 
*END

*D_NET *165 0.00134568
*CONN
*I *851:A1 I *D sky130_fd_sc_hd__mux2_1
*I *847:A0 I *D sky130_fd_sc_hd__mux2_1
*I *937:Q O *D sky130_fd_sc_hd__dfxtp_2
*CAP
1 *851:A1 9.2807e-05
2 *847:A0 0.000338015
3 *937:Q 6.61413e-05
4 *165:8 0.000496963
5 *847:A1 *847:A0 5.33005e-05
6 *847:S *847:A0 9.60939e-05
7 *851:A0 *851:A1 0.000143633
8 *851:A0 *165:8 3.75959e-05
9 *851:S *851:A1 2.11336e-05
10 *148:108 *847:A0 0
*RES
1 *937:Q *165:8 15.1393 
2 *165:8 *847:A0 19.9607 
3 *165:8 *851:A1 15.9786 
*END

*D_NET *166 0.00109531
*CONN
*I *854:A1 I *D sky130_fd_sc_hd__mux2_1
*I *850:A0 I *D sky130_fd_sc_hd__mux2_1
*I *938:Q O *D sky130_fd_sc_hd__dfxtp_2
*CAP
1 *854:A1 0.000124021
2 *850:A0 4.62827e-05
3 *938:Q 0.000222544
4 *166:8 0.000392848
5 *82:29 *854:A1 0
6 *82:37 *850:A0 7.89362e-05
7 *82:37 *854:A1 0.000216579
8 *104:16 *854:A1 1.41029e-05
*RES
1 *938:Q *166:8 16.3893 
2 *166:8 *850:A0 14.8357 
3 *166:8 *854:A1 16.9607 
*END

*D_NET *167 0.00171581
*CONN
*I *857:B2 I *D sky130_fd_sc_hd__a32o_2
*I *853:A0 I *D sky130_fd_sc_hd__mux2_1
*I *939:Q O *D sky130_fd_sc_hd__dfxtp_2
*CAP
1 *857:B2 0
2 *853:A0 0.000200285
3 *939:Q 0.000269781
4 *167:12 0.000470066
5 *856:A2 *853:A0 3.9838e-05
6 *857:B1 *853:A0 0.000193118
7 *858:B *167:12 0
8 *4:12 *167:12 0
9 *4:18 *167:12 0.000185247
10 *82:29 *853:A0 0
11 *104:10 *853:A0 6.75007e-05
12 *104:16 *853:A0 1.76039e-05
13 *148:30 *853:A0 0
14 *148:30 *167:12 0.000272371
*RES
1 *939:Q *167:12 24.7821 
2 *167:12 *853:A0 22.9786 
3 *167:12 *857:B2 9.3 
*END

*D_NET *168 0.00204382
*CONN
*I *859:A1 I *D sky130_fd_sc_hd__a21o_2
*I *857:A1 I *D sky130_fd_sc_hd__a32o_2
*I *940:Q O *D sky130_fd_sc_hd__dfxtp_2
*CAP
1 *859:A1 0.00014526
2 *857:A1 0.000236144
3 *940:Q 0.000115368
4 *168:8 0.000496772
5 *857:A2 *857:A1 0.000385003
6 *858:A *857:A1 0
7 *859:A2 *857:A1 6.74815e-05
8 *859:A2 *859:A1 0.000100969
9 *859:B1 *859:A1 2.89114e-05
10 *940:D *859:A1 3.2534e-05
11 *950:A *857:A1 0
12 *100:10 *857:A1 0.00038501
13 *121:16 *857:A1 4.98055e-06
14 *146:14 *168:8 4.53889e-05
15 *150:32 *857:A1 0
16 *150:32 *859:A1 0
*RES
1 *940:Q *168:8 15.1571 
2 *168:8 *857:A1 21.2107 
3 *168:8 *859:A1 16.8893 
*END
