*SPEF "ieee 1481-1999"
*DESIGN "uart_tx"
*DATE "17:31:29 Wednesday September 16, 2026"
*VENDOR "The OpenROAD Project"
*PROGRAM "OpenROAD"
*VERSION "dcf36133a369abc8f3c5e5738cd4d82e4903c0e0"
*DESIGN_FLOW "NAME_SCOPE LOCAL" "PIN_CAP NONE"
*DIVIDER /
*DELIMITER :
*BUS_DELIMITER []
*T_UNIT 1 NS
*C_UNIT 1 PF
*R_UNIT 1 OHM
*L_UNIT 1 HENRY

*NAME_MAP
*3 busy
*4 clk
*5 rst
*6 tx
*7 tx_data[0]
*8 tx_data[1]
*9 tx_data[2]
*10 tx_data[3]
*11 tx_data[4]
*12 tx_data[5]
*13 tx_data[6]
*14 tx_data[7]
*15 tx_start
*16 _000_
*17 _001_
*18 _002_
*19 _003_
*20 _004_
*21 _005_
*22 _006_
*23 _007_
*24 _008_
*25 _009_
*26 _010_
*27 _011_
*28 _012_
*29 _013_
*30 _014_
*31 _015_
*32 _016_
*33 _017_
*34 _018_
*35 _019_
*36 _020_
*37 _021_
*38 _022_
*39 _023_
*40 _024_
*41 _025_
*42 _026_
*43 _027_
*44 _028_
*45 _029_
*46 _030_
*47 _031_
*48 _032_
*49 _033_
*50 _034_
*51 _035_
*52 _036_
*53 _037_
*54 _038_
*55 _039_
*56 _040_
*57 _041_
*58 _042_
*59 _043_
*60 _044_
*61 _045_
*62 _046_
*63 _047_
*64 _048_
*65 _049_
*66 _050_
*67 _051_
*68 _052_
*69 _053_
*70 _054_
*71 _055_
*72 _056_
*73 _057_
*74 _058_
*75 _059_
*76 _060_
*77 _061_
*78 _062_
*79 _063_
*80 _064_
*81 _065_
*82 _066_
*83 _067_
*84 _068_
*85 _069_
*86 _070_
*87 _071_
*88 _072_
*89 _073_
*90 _074_
*91 _075_
*92 _076_
*93 _077_
*94 _078_
*95 _079_
*96 _080_
*97 _081_
*98 _082_
*99 _083_
*100 _084_
*101 _085_
*102 _086_
*103 _087_
*104 _088_
*105 _089_
*106 _090_
*107 _091_
*108 _092_
*109 _093_
*110 _094_
*111 _095_
*112 _096_
*113 _097_
*114 _098_
*115 _099_
*116 _100_
*117 _101_
*118 _102_
*119 _103_
*120 _104_
*121 _105_
*122 _106_
*123 baud_counter\[0\]
*124 baud_counter\[10\]
*125 baud_counter\[11\]
*126 baud_counter\[12\]
*127 baud_counter\[13\]
*128 baud_counter\[14\]
*129 baud_counter\[15\]
*130 baud_counter\[1\]
*131 baud_counter\[2\]
*132 baud_counter\[3\]
*133 baud_counter\[4\]
*134 baud_counter\[5\]
*135 baud_counter\[6\]
*136 baud_counter\[7\]
*137 baud_counter\[8\]
*138 baud_counter\[9\]
*139 bit_index\[0\]
*140 bit_index\[1\]
*141 bit_index\[2\]
*142 bit_index\[3\]
*143 clknet_0_clk
*144 clknet_2_0__leaf_clk
*145 clknet_2_1__leaf_clk
*146 clknet_2_2__leaf_clk
*147 clknet_2_3__leaf_clk
*148 net1
*149 net10
*150 net11
*151 net12
*152 net2
*153 net3
*154 net4
*155 net5
*156 net6
*157 net7
*158 net8
*159 net9
*160 tx_shift\[1\]
*161 tx_shift\[2\]
*162 tx_shift\[3\]
*163 tx_shift\[4\]
*164 tx_shift\[5\]
*165 tx_shift\[6\]
*166 tx_shift\[7\]
*167 tx_shift\[8\]
*168 tx_shift\[9\]
*169 FILLER_0_100
*170 FILLER_0_103
*171 FILLER_0_106
*172 FILLER_0_109
*173 FILLER_0_113
*174 FILLER_0_116
*175 FILLER_0_119
*176 FILLER_0_12
*177 FILLER_0_122
*178 FILLER_0_125
*179 FILLER_0_128
*180 FILLER_0_131
*181 FILLER_0_15
*182 FILLER_0_27
*183 FILLER_0_3
*184 FILLER_0_37
*185 FILLER_0_6
*186 FILLER_0_65
*187 FILLER_0_68
*188 FILLER_0_71
*189 FILLER_0_74
*190 FILLER_0_77
*191 FILLER_0_80
*192 FILLER_0_83
*193 FILLER_0_85
*194 FILLER_0_88
*195 FILLER_0_9
*196 FILLER_0_91
*197 FILLER_0_94
*198 FILLER_0_97
*199 FILLER_10_100
*200 FILLER_10_103
*201 FILLER_10_106
*202 FILLER_10_109
*203 FILLER_10_11
*204 FILLER_10_112
*205 FILLER_10_115
*206 FILLER_10_118
*207 FILLER_10_121
*208 FILLER_10_124
*209 FILLER_10_127
*210 FILLER_10_130
*211 FILLER_10_133
*212 FILLER_10_22
*213 FILLER_10_25
*214 FILLER_10_29
*215 FILLER_10_32
*216 FILLER_10_35
*217 FILLER_10_38
*218 FILLER_10_41
*219 FILLER_10_52
*220 FILLER_10_55
*221 FILLER_10_58
*222 FILLER_10_61
*223 FILLER_10_64
*224 FILLER_10_80
*225 FILLER_10_83
*226 FILLER_10_85
*227 FILLER_10_88
*228 FILLER_10_91
*229 FILLER_10_94
*230 FILLER_10_97
*231 FILLER_11_100
*232 FILLER_11_103
*233 FILLER_11_106
*234 FILLER_11_109
*235 FILLER_11_113
*236 FILLER_11_116
*237 FILLER_11_119
*238 FILLER_11_122
*239 FILLER_11_125
*240 FILLER_11_128
*241 FILLER_11_131
*242 FILLER_11_24
*243 FILLER_11_27
*244 FILLER_11_30
*245 FILLER_11_33
*246 FILLER_11_36
*247 FILLER_11_39
*248 FILLER_11_42
*249 FILLER_11_57
*250 FILLER_11_60
*251 FILLER_11_82
*252 FILLER_11_85
*253 FILLER_11_88
*254 FILLER_11_91
*255 FILLER_11_94
*256 FILLER_11_97
*257 FILLER_12_100
*258 FILLER_12_11
*259 FILLER_12_110
*260 FILLER_12_127
*261 FILLER_12_130
*262 FILLER_12_133
*263 FILLER_12_14
*264 FILLER_12_24
*265 FILLER_12_27
*266 FILLER_12_29
*267 FILLER_12_32
*268 FILLER_12_47
*269 FILLER_12_50
*270 FILLER_12_53
*271 FILLER_12_56
*272 FILLER_12_59
*273 FILLER_12_62
*274 FILLER_12_65
*275 FILLER_12_68
*276 FILLER_12_88
*277 FILLER_12_91
*278 FILLER_12_94
*279 FILLER_12_97
*280 FILLER_13_104
*281 FILLER_13_107
*282 FILLER_13_110
*283 FILLER_13_133
*284 FILLER_13_28
*285 FILLER_13_3
*286 FILLER_13_31
*287 FILLER_13_34
*288 FILLER_13_37
*289 FILLER_13_40
*290 FILLER_13_43
*291 FILLER_13_49
*292 FILLER_13_52
*293 FILLER_13_55
*294 FILLER_13_57
*295 FILLER_13_60
*296 FILLER_13_90
*297 FILLER_13_93
*298 FILLER_14_101
*299 FILLER_14_104
*300 FILLER_14_107
*301 FILLER_14_130
*302 FILLER_14_133
*303 FILLER_14_22
*304 FILLER_14_29
*305 FILLER_14_32
*306 FILLER_14_43
*307 FILLER_14_68
*308 FILLER_14_83
*309 FILLER_14_85
*310 FILLER_14_88
*311 FILLER_14_91
*312 FILLER_15_111
*313 FILLER_15_113
*314 FILLER_15_116
*315 FILLER_15_119
*316 FILLER_15_122
*317 FILLER_15_125
*318 FILLER_15_128
*319 FILLER_15_131
*320 FILLER_15_26
*321 FILLER_15_29
*322 FILLER_15_3
*323 FILLER_15_32
*324 FILLER_15_51
*325 FILLER_15_54
*326 FILLER_15_57
*327 FILLER_15_6
*328 FILLER_15_60
*329 FILLER_15_75
*330 FILLER_15_78
*331 FILLER_15_81
*332 FILLER_15_84
*333 FILLER_15_87
*334 FILLER_15_90
*335 FILLER_15_93
*336 FILLER_16_103
*337 FILLER_16_106
*338 FILLER_16_109
*339 FILLER_16_112
*340 FILLER_16_115
*341 FILLER_16_118
*342 FILLER_16_12
*343 FILLER_16_121
*344 FILLER_16_124
*345 FILLER_16_127
*346 FILLER_16_130
*347 FILLER_16_133
*348 FILLER_16_15
*349 FILLER_16_24
*350 FILLER_16_27
*351 FILLER_16_29
*352 FILLER_16_3
*353 FILLER_16_32
*354 FILLER_16_35
*355 FILLER_16_44
*356 FILLER_16_47
*357 FILLER_16_50
*358 FILLER_16_53
*359 FILLER_16_56
*360 FILLER_16_59
*361 FILLER_16_6
*362 FILLER_16_62
*363 FILLER_16_65
*364 FILLER_16_68
*365 FILLER_16_71
*366 FILLER_16_74
*367 FILLER_16_77
*368 FILLER_16_80
*369 FILLER_16_83
*370 FILLER_16_9
*371 FILLER_17_104
*372 FILLER_17_107
*373 FILLER_17_110
*374 FILLER_17_118
*375 FILLER_17_12
*376 FILLER_17_121
*377 FILLER_17_124
*378 FILLER_17_127
*379 FILLER_17_130
*380 FILLER_17_133
*381 FILLER_17_15
*382 FILLER_17_18
*383 FILLER_17_27
*384 FILLER_17_3
*385 FILLER_17_30
*386 FILLER_17_33
*387 FILLER_17_57
*388 FILLER_17_6
*389 FILLER_17_60
*390 FILLER_17_63
*391 FILLER_17_66
*392 FILLER_17_69
*393 FILLER_17_72
*394 FILLER_17_75
*395 FILLER_17_78
*396 FILLER_17_81
*397 FILLER_17_9
*398 FILLER_18_108
*399 FILLER_18_111
*400 FILLER_18_125
*401 FILLER_18_128
*402 FILLER_18_131
*403 FILLER_18_25
*404 FILLER_18_29
*405 FILLER_18_3
*406 FILLER_18_32
*407 FILLER_18_35
*408 FILLER_18_52
*409 FILLER_18_55
*410 FILLER_18_58
*411 FILLER_18_6
*412 FILLER_18_61
*413 FILLER_18_64
*414 FILLER_18_67
*415 FILLER_18_70
*416 FILLER_18_80
*417 FILLER_18_83
*418 FILLER_18_90
*419 FILLER_19_102
*420 FILLER_19_105
*421 FILLER_19_113
*422 FILLER_19_131
*423 FILLER_19_25
*424 FILLER_19_28
*425 FILLER_19_54
*426 FILLER_19_64
*427 FILLER_19_96
*428 FILLER_19_99
*429 FILLER_1_101
*430 FILLER_1_104
*431 FILLER_1_107
*432 FILLER_1_110
*433 FILLER_1_121
*434 FILLER_1_124
*435 FILLER_1_127
*436 FILLER_1_130
*437 FILLER_1_133
*438 FILLER_1_20
*439 FILLER_1_3
*440 FILLER_1_38
*441 FILLER_1_55
*442 FILLER_1_57
*443 FILLER_1_6
*444 FILLER_1_60
*445 FILLER_1_63
*446 FILLER_1_66
*447 FILLER_1_69
*448 FILLER_1_72
*449 FILLER_1_75
*450 FILLER_1_9
*451 FILLER_1_95
*452 FILLER_1_98
*453 FILLER_20_102
*454 FILLER_20_105
*455 FILLER_20_108
*456 FILLER_20_131
*457 FILLER_20_26
*458 FILLER_20_29
*459 FILLER_20_3
*460 FILLER_20_32
*461 FILLER_20_35
*462 FILLER_20_38
*463 FILLER_20_6
*464 FILLER_20_65
*465 FILLER_21_101
*466 FILLER_21_104
*467 FILLER_21_107
*468 FILLER_21_110
*469 FILLER_21_113
*470 FILLER_21_116
*471 FILLER_21_120
*472 FILLER_21_123
*473 FILLER_21_126
*474 FILLER_21_129
*475 FILLER_21_132
*476 FILLER_21_19
*477 FILLER_21_22
*478 FILLER_21_25
*479 FILLER_21_28
*480 FILLER_21_3
*481 FILLER_21_31
*482 FILLER_21_34
*483 FILLER_21_37
*484 FILLER_21_40
*485 FILLER_21_43
*486 FILLER_21_46
*487 FILLER_21_55
*488 FILLER_21_57
*489 FILLER_21_6
*490 FILLER_21_60
*491 FILLER_21_63
*492 FILLER_21_66
*493 FILLER_21_69
*494 FILLER_21_72
*495 FILLER_21_75
*496 FILLER_21_78
*497 FILLER_21_81
*498 FILLER_21_89
*499 FILLER_21_9
*500 FILLER_21_92
*501 FILLER_21_95
*502 FILLER_21_98
*503 FILLER_22_100
*504 FILLER_22_103
*505 FILLER_22_106
*506 FILLER_22_109
*507 FILLER_22_113
*508 FILLER_22_116
*509 FILLER_22_119
*510 FILLER_22_12
*511 FILLER_22_122
*512 FILLER_22_125
*513 FILLER_22_128
*514 FILLER_22_131
*515 FILLER_22_15
*516 FILLER_22_18
*517 FILLER_22_21
*518 FILLER_22_24
*519 FILLER_22_27
*520 FILLER_22_29
*521 FILLER_22_3
*522 FILLER_22_32
*523 FILLER_22_35
*524 FILLER_22_38
*525 FILLER_22_41
*526 FILLER_22_44
*527 FILLER_22_47
*528 FILLER_22_50
*529 FILLER_22_53
*530 FILLER_22_57
*531 FILLER_22_6
*532 FILLER_22_60
*533 FILLER_22_63
*534 FILLER_22_66
*535 FILLER_22_69
*536 FILLER_22_72
*537 FILLER_22_75
*538 FILLER_22_78
*539 FILLER_22_81
*540 FILLER_22_85
*541 FILLER_22_88
*542 FILLER_22_9
*543 FILLER_22_91
*544 FILLER_22_94
*545 FILLER_22_97
*546 FILLER_2_105
*547 FILLER_2_132
*548 FILLER_2_27
*549 FILLER_2_29
*550 FILLER_2_3
*551 FILLER_2_32
*552 FILLER_2_68
*553 FILLER_2_71
*554 FILLER_2_74
*555 FILLER_2_77
*556 FILLER_2_80
*557 FILLER_2_83
*558 FILLER_2_93
*559 FILLER_2_96
*560 FILLER_3_101
*561 FILLER_3_130
*562 FILLER_3_133
*563 FILLER_3_14
*564 FILLER_3_17
*565 FILLER_3_20
*566 FILLER_3_3
*567 FILLER_3_30
*568 FILLER_3_33
*569 FILLER_3_36
*570 FILLER_3_39
*571 FILLER_3_6
*572 FILLER_3_66
*573 FILLER_3_69
*574 FILLER_3_72
*575 FILLER_3_75
*576 FILLER_4_100
*577 FILLER_4_11
*578 FILLER_4_122
*579 FILLER_4_125
*580 FILLER_4_128
*581 FILLER_4_131
*582 FILLER_4_21
*583 FILLER_4_24
*584 FILLER_4_27
*585 FILLER_4_29
*586 FILLER_4_32
*587 FILLER_4_35
*588 FILLER_4_38
*589 FILLER_4_41
*590 FILLER_4_65
*591 FILLER_4_68
*592 FILLER_4_71
*593 FILLER_4_74
*594 FILLER_4_77
*595 FILLER_4_80
*596 FILLER_4_83
*597 FILLER_5_107
*598 FILLER_5_110
*599 FILLER_5_12
*600 FILLER_5_120
*601 FILLER_5_123
*602 FILLER_5_126
*603 FILLER_5_129
*604 FILLER_5_132
*605 FILLER_5_22
*606 FILLER_5_25
*607 FILLER_5_28
*608 FILLER_5_3
*609 FILLER_5_31
*610 FILLER_5_34
*611 FILLER_5_37
*612 FILLER_5_50
*613 FILLER_5_53
*614 FILLER_5_57
*615 FILLER_5_6
*616 FILLER_5_60
*617 FILLER_5_63
*618 FILLER_5_66
*619 FILLER_5_69
*620 FILLER_5_9
*621 FILLER_6_101
*622 FILLER_6_104
*623 FILLER_6_107
*624 FILLER_6_110
*625 FILLER_6_113
*626 FILLER_6_116
*627 FILLER_6_119
*628 FILLER_6_122
*629 FILLER_6_125
*630 FILLER_6_128
*631 FILLER_6_131
*632 FILLER_6_25
*633 FILLER_6_29
*634 FILLER_6_32
*635 FILLER_6_59
*636 FILLER_6_62
*637 FILLER_6_65
*638 FILLER_6_68
*639 FILLER_6_71
*640 FILLER_6_74
*641 FILLER_6_77
*642 FILLER_6_83
*643 FILLER_6_85
*644 FILLER_6_88
*645 FILLER_6_91
*646 FILLER_6_98
*647 FILLER_7_11
*648 FILLER_7_113
*649 FILLER_7_116
*650 FILLER_7_22
*651 FILLER_7_25
*652 FILLER_7_28
*653 FILLER_7_31
*654 FILLER_7_34
*655 FILLER_7_37
*656 FILLER_7_57
*657 FILLER_7_60
*658 FILLER_7_63
*659 FILLER_7_66
*660 FILLER_7_69
*661 FILLER_7_72
*662 FILLER_7_91
*663 FILLER_7_94
*664 FILLER_8_128
*665 FILLER_8_131
*666 FILLER_8_25
*667 FILLER_8_29
*668 FILLER_8_32
*669 FILLER_8_35
*670 FILLER_8_60
*671 FILLER_8_63
*672 FILLER_8_66
*673 FILLER_8_69
*674 FILLER_8_85
*675 FILLER_8_88
*676 FILLER_8_91
*677 FILLER_8_94
*678 FILLER_8_97
*679 FILLER_9_102
*680 FILLER_9_105
*681 FILLER_9_108
*682 FILLER_9_11
*683 FILLER_9_111
*684 FILLER_9_121
*685 FILLER_9_124
*686 FILLER_9_127
*687 FILLER_9_130
*688 FILLER_9_133
*689 FILLER_9_21
*690 FILLER_9_24
*691 FILLER_9_27
*692 FILLER_9_30
*693 FILLER_9_33
*694 FILLER_9_36
*695 FILLER_9_54
*696 FILLER_9_57
*697 FILLER_9_60
*698 FILLER_9_63
*699 FILLER_9_66
*700 FILLER_9_69
*701 FILLER_9_72
*702 FILLER_9_87
*703 FILLER_9_90
*704 FILLER_9_93
*705 FILLER_9_96
*706 FILLER_9_99
*707 PHY_EDGE_ROW_0_Left_23
*708 PHY_EDGE_ROW_0_Right_0
*709 PHY_EDGE_ROW_10_Left_33
*710 PHY_EDGE_ROW_10_Right_10
*711 PHY_EDGE_ROW_11_Left_34
*712 PHY_EDGE_ROW_11_Right_11
*713 PHY_EDGE_ROW_12_Left_35
*714 PHY_EDGE_ROW_12_Right_12
*715 PHY_EDGE_ROW_13_Left_36
*716 PHY_EDGE_ROW_13_Right_13
*717 PHY_EDGE_ROW_14_Left_37
*718 PHY_EDGE_ROW_14_Right_14
*719 PHY_EDGE_ROW_15_Left_38
*720 PHY_EDGE_ROW_15_Right_15
*721 PHY_EDGE_ROW_16_Left_39
*722 PHY_EDGE_ROW_16_Right_16
*723 PHY_EDGE_ROW_17_Left_40
*724 PHY_EDGE_ROW_17_Right_17
*725 PHY_EDGE_ROW_18_Left_41
*726 PHY_EDGE_ROW_18_Right_18
*727 PHY_EDGE_ROW_19_Left_42
*728 PHY_EDGE_ROW_19_Right_19
*729 PHY_EDGE_ROW_1_Left_24
*730 PHY_EDGE_ROW_1_Right_1
*731 PHY_EDGE_ROW_20_Left_43
*732 PHY_EDGE_ROW_20_Right_20
*733 PHY_EDGE_ROW_21_Left_44
*734 PHY_EDGE_ROW_21_Right_21
*735 PHY_EDGE_ROW_22_Left_45
*736 PHY_EDGE_ROW_22_Right_22
*737 PHY_EDGE_ROW_2_Left_25
*738 PHY_EDGE_ROW_2_Right_2
*739 PHY_EDGE_ROW_3_Left_26
*740 PHY_EDGE_ROW_3_Right_3
*741 PHY_EDGE_ROW_4_Left_27
*742 PHY_EDGE_ROW_4_Right_4
*743 PHY_EDGE_ROW_5_Left_28
*744 PHY_EDGE_ROW_5_Right_5
*745 PHY_EDGE_ROW_6_Left_29
*746 PHY_EDGE_ROW_6_Right_6
*747 PHY_EDGE_ROW_7_Left_30
*748 PHY_EDGE_ROW_7_Right_7
*749 PHY_EDGE_ROW_8_Left_31
*750 PHY_EDGE_ROW_8_Right_8
*751 PHY_EDGE_ROW_9_Left_32
*752 PHY_EDGE_ROW_9_Right_9
*753 TAP_TAPCELL_ROW_0_46
*754 TAP_TAPCELL_ROW_0_47
*755 TAP_TAPCELL_ROW_0_48
*756 TAP_TAPCELL_ROW_0_49
*757 TAP_TAPCELL_ROW_10_68
*758 TAP_TAPCELL_ROW_10_69
*759 TAP_TAPCELL_ROW_11_70
*760 TAP_TAPCELL_ROW_11_71
*761 TAP_TAPCELL_ROW_12_72
*762 TAP_TAPCELL_ROW_12_73
*763 TAP_TAPCELL_ROW_13_74
*764 TAP_TAPCELL_ROW_13_75
*765 TAP_TAPCELL_ROW_14_76
*766 TAP_TAPCELL_ROW_14_77
*767 TAP_TAPCELL_ROW_15_78
*768 TAP_TAPCELL_ROW_15_79
*769 TAP_TAPCELL_ROW_16_80
*770 TAP_TAPCELL_ROW_16_81
*771 TAP_TAPCELL_ROW_17_82
*772 TAP_TAPCELL_ROW_17_83
*773 TAP_TAPCELL_ROW_18_84
*774 TAP_TAPCELL_ROW_18_85
*775 TAP_TAPCELL_ROW_19_86
*776 TAP_TAPCELL_ROW_19_87
*777 TAP_TAPCELL_ROW_1_50
*778 TAP_TAPCELL_ROW_1_51
*779 TAP_TAPCELL_ROW_20_88
*780 TAP_TAPCELL_ROW_20_89
*781 TAP_TAPCELL_ROW_21_90
*782 TAP_TAPCELL_ROW_21_91
*783 TAP_TAPCELL_ROW_22_92
*784 TAP_TAPCELL_ROW_22_93
*785 TAP_TAPCELL_ROW_22_94
*786 TAP_TAPCELL_ROW_22_95
*787 TAP_TAPCELL_ROW_2_52
*788 TAP_TAPCELL_ROW_2_53
*789 TAP_TAPCELL_ROW_3_54
*790 TAP_TAPCELL_ROW_3_55
*791 TAP_TAPCELL_ROW_4_56
*792 TAP_TAPCELL_ROW_4_57
*793 TAP_TAPCELL_ROW_5_58
*794 TAP_TAPCELL_ROW_5_59
*795 TAP_TAPCELL_ROW_6_60
*796 TAP_TAPCELL_ROW_6_61
*797 TAP_TAPCELL_ROW_7_62
*798 TAP_TAPCELL_ROW_7_63
*799 TAP_TAPCELL_ROW_8_64
*800 TAP_TAPCELL_ROW_8_65
*801 TAP_TAPCELL_ROW_9_66
*802 TAP_TAPCELL_ROW_9_67
*803 _107_
*804 _108_
*805 _109_
*806 _110_
*807 _111_
*808 _112_
*809 _113_
*810 _114_
*811 _115_
*812 _116_
*813 _117_
*814 _118_
*815 _119_
*816 _120_
*817 _121_
*818 _122_
*819 _123_
*820 _124_
*821 _125_
*822 _126_
*823 _127_
*824 _128_
*825 _129_
*826 _130_
*827 _131_
*828 _132_
*829 _133_
*830 _134_
*831 _135_
*832 _136_
*833 _137_
*834 _138_
*835 _139_
*836 _140_
*837 _141_
*838 _142_
*839 _143_
*840 _144_
*841 _145_
*842 _146_
*843 _147_
*844 _148_
*845 _149_
*846 _150_
*847 _151_
*848 _152_
*849 _153_
*850 _154_
*851 _155_
*852 _156_
*853 _157_
*854 _158_
*855 _159_
*856 _160_
*857 _161_
*858 _162_
*859 _163_
*860 _164_
*861 _165_
*862 _166_
*863 _167_
*864 _168_
*865 _169_
*866 _170_
*867 _171_
*868 _172_
*869 _173_
*870 _174_
*871 _175_
*872 _176_
*873 _177_
*874 _178_
*875 _179_
*876 _180_
*877 _181_
*878 _182_
*879 _183_
*880 _184_
*881 _185_
*882 _186_
*883 _187_
*884 _188_
*885 _189_
*886 _190_
*887 _191_
*888 _192_
*889 _193_
*890 _194_
*891 _195_
*892 _196_
*893 _197_
*894 _198_
*895 _199_
*896 _200_
*897 _201_
*898 _202_
*899 _203_
*900 _204_
*901 _205_
*902 _206_
*903 _207_
*904 _208_
*905 _209_
*906 _210_
*907 _211_
*908 _212_
*909 _213_
*910 _214_
*911 _215_
*912 _216_
*913 _217_
*914 _218_
*915 _219_
*916 _220_
*917 _221_
*918 _222_
*919 _223_
*920 _224_
*921 _225_
*922 _226_
*923 _227_
*924 _228_
*925 _229_
*926 _230_
*927 _231_
*928 _232_
*929 _233_
*930 _234_
*931 _235_
*932 _236_
*933 _237_
*934 _238_
*935 _239_
*936 _240_
*937 _241_
*938 _242_
*939 _243_
*940 _244_
*941 clkbuf_0_clk
*942 clkbuf_2_0__f_clk
*943 clkbuf_2_1__f_clk
*944 clkbuf_2_2__f_clk
*945 clkbuf_2_3__f_clk
*946 clkload0
*947 clkload1
*948 clkload2
*949 input1
*950 input10
*951 input2
*952 input3
*953 input4
*954 input5
*955 input6
*956 input7
*957 input8
*958 input9
*959 output11
*960 output12

*PORTS
busy O
clk I
rst I
tx O
tx_data[0] I
tx_data[1] I
tx_data[2] I
tx_data[3] I
tx_data[4] I
tx_data[5] I
tx_data[6] I
tx_data[7] I
tx_start I

*D_NET *3 0.000849058
*CONN
*P busy O
*I *959:X O *D sky130_fd_sc_hd__clkdlybuf4s25_1
*CAP
1 busy 0.000327999
2 *959:X 0.000327999
3 busy *950:A 0.000192142
4 busy *4:18 9.17673e-07
*RES
1 *959:X busy 7.32877 
*END

*D_NET *4 0.00659789
*CONN
*P clk I
*I *941:A I *D sky130_fd_sc_hd__clkbuf_16
*CAP
1 clk 0.00270791
2 *941:A 0
3 *4:18 0.00270791
4 *4:18 *829:B 3.05972e-05
5 *4:18 *857:A3 7.71104e-05
6 *4:18 *857:B1 4.24479e-05
7 *4:18 *864:A 5.41023e-05
8 *4:18 *866:B 5.41079e-05
9 *4:18 *890:A 0
10 *4:18 *890:B 0
11 *4:18 *913:CLK 0
12 *4:18 *913:D 0
13 *4:18 *939:CLK 0
14 *4:18 *958:A 8.71101e-05
15 *4:18 *103:8 6.26165e-05
16 *4:18 *105:8 2.44225e-05
17 *4:18 *105:25 7.57517e-06
18 *4:18 *115:33 0.000207288
19 *4:18 *116:20 6.52087e-05
20 *4:18 *116:132 0
21 *4:18 *121:46 0.000113111
22 *4:18 *146:33 0
23 *4:18 *148:30 0.000181881
24 *4:18 *167:12 0.000173569
25 busy *4:18 9.17673e-07
*RES
1 clk *4:18 45.1468 
2 *4:18 *941:A 3.6 
*END

*D_NET *5 0.000841458
*CONN
*P rst I
*I *949:A I *D sky130_fd_sc_hd__clkdlybuf4s25_1
*CAP
1 rst 0.000395178
2 *949:A 0.000395178
3 *949:A *950:A 0
4 *949:A *957:A 0
5 *949:A *958:A 5.11015e-05
*RES
1 rst *949:A 8.34877 
*END

*D_NET *6 0.000912601
*CONN
*P tx O
*I *960:X O *D sky130_fd_sc_hd__clkdlybuf4s25_1
*CAP
1 tx 0.00036023
2 *960:X 0.00036023
3 tx *956:A 0
4 tx *957:A 0.000192142
*RES
1 *960:X tx 6.11837 
*END

*D_NET *7 0.00133799
*CONN
*P tx_data[0] I
*I *951:A I *D sky130_fd_sc_hd__clkdlybuf4s25_1
*CAP
1 tx_data[0] 0.000415288
2 *951:A 0.000415288
3 *951:A *835:A1 3.64998e-06
4 *951:A *952:A 0.000503765
5 *951:A *953:A 0
*RES
1 tx_data[0] *951:A 13.74 
*END

*D_NET *8 0.00136278
*CONN
*P tx_data[1] I
*I *952:A I *D sky130_fd_sc_hd__clkdlybuf4s25_1
*CAP
1 tx_data[1] 0.000429508
2 *952:A 0.000429508
3 *951:A *952:A 0.000503765
*RES
1 tx_data[1] *952:A 13.845 
*END

*D_NET *9 0.00108367
*CONN
*P tx_data[2] I
*I *953:A I *D sky130_fd_sc_hd__clkdlybuf4s25_1
*CAP
1 tx_data[2] 0.000541837
2 *953:A 0.000541837
3 *951:A *953:A 0
*RES
1 tx_data[2] *953:A 13.05 
*END

*D_NET *10 0.00166452
*CONN
*P tx_data[3] I
*I *954:A I *D sky130_fd_sc_hd__clkdlybuf4s25_1
*CAP
1 tx_data[3] 0.000538876
2 *954:A 0.000538876
3 *954:A *844:A0 3.05373e-05
4 *954:A *844:A1 0.000278117
5 *954:A *844:S 0.000278117
*RES
1 tx_data[3] *954:A 15.12 
*END

*D_NET *11 0.000748316
*CONN
*P tx_data[4] I
*I *955:A I *D sky130_fd_sc_hd__clkdlybuf4s25_1
*CAP
1 tx_data[4] 0.000374158
2 *955:A 0.000374158
*RES
1 tx_data[4] *955:A 8.41223 
*END

*D_NET *12 0.000811604
*CONN
*P tx_data[5] I
*I *956:A I *D sky130_fd_sc_hd__clkdlybuf4s25_1
*CAP
1 tx_data[5] 0.000405802
2 *956:A 0.000405802
3 tx *956:A 0
*RES
1 tx_data[5] *956:A 10.0692 
*END

*D_NET *13 0.000812802
*CONN
*P tx_data[6] I
*I *957:A I *D sky130_fd_sc_hd__clkdlybuf4s25_1
*CAP
1 tx_data[6] 0.00031033
2 *957:A 0.00031033
3 tx *957:A 0.000192142
4 *949:A *957:A 0
*RES
1 tx_data[6] *957:A 7.58377 
*END

*D_NET *14 0.000785062
*CONN
*P tx_data[7] I
*I *958:A I *D sky130_fd_sc_hd__clkdlybuf4s25_1
*CAP
1 tx_data[7] 0.000310513
2 *958:A 0.000310513
3 *958:A *950:A 2.58237e-05
4 *949:A *958:A 5.11015e-05
5 *4:18 *958:A 8.71101e-05
*RES
1 tx_data[7] *958:A 9.30417 
*END

*D_NET *15 0.00141524
*CONN
*P tx_start I
*I *950:A I *D sky130_fd_sc_hd__clkdlybuf4s25_1
*CAP
1 tx_start 0.000565871
2 *950:A 0.000565871
3 *950:A *857:A1 0
4 *950:A *939:CLK 6.55328e-05
5 *950:A *100:10 0
6 *950:A *150:32 0
7 busy *950:A 0.000192142
8 *949:A *950:A 0
9 *958:A *950:A 2.58237e-05
*RES
1 tx_start *950:A 7.21277 
*END

*D_NET *16 0.000392999
*CONN
*I *910:D I *D sky130_fd_sc_hd__dfxtp_2
*I *880:X O *D sky130_fd_sc_hd__a211o_2
*CAP
1 *910:D 0.000120777
2 *880:X 0.000120777
3 *910:D *880:A1 6.63873e-05
4 *910:D *910:CLK 7.06865e-05
5 *910:D *960:A 1.43717e-05
*RES
1 *880:X *910:D 9.42375 
*END

*D_NET *17 0.00115763
*CONN
*I *911:D I *D sky130_fd_sc_hd__dfxtp_2
*I *882:X O *D sky130_fd_sc_hd__o211a_2
*CAP
1 *911:D 0.000323496
2 *882:X 0.000323496
3 *911:D *882:A1 3.47837e-05
4 *911:D *911:CLK 3.92307e-05
5 *911:D *110:20 0.000235514
6 *911:D *146:12 4.43871e-06
7 *911:D *146:60 0.000196669
*RES
1 *882:X *911:D 13.4738 
*END

*D_NET *18 0.000780703
*CONN
*I *912:D I *D sky130_fd_sc_hd__dfxtp_2
*I *886:Y O *D sky130_fd_sc_hd__a21oi_2
*CAP
1 *912:D 0.000310285
2 *886:Y 0.000310285
3 *912:D *886:A1 8.85956e-05
4 *912:D *886:B1 0
5 *912:D *150:73 5.21545e-05
6 *912:D *150:92 1.93834e-05
*RES
1 *886:Y *912:D 13.0688 
*END

*D_NET *19 0.00047762
*CONN
*I *913:D I *D sky130_fd_sc_hd__dfxtp_2
*I *890:Y O *D sky130_fd_sc_hd__nor2_2
*CAP
1 *913:D 0.000220376
2 *890:Y 0.000220376
3 *913:D *913:CLK 3.68682e-05
4 *4:18 *913:D 0
*RES
1 *890:Y *913:D 10.3837 
*END

*D_NET *20 0.000569248
*CONN
*I *914:D I *D sky130_fd_sc_hd__dfxtp_2
*I *893:X O *D sky130_fd_sc_hd__and3b_2
*CAP
1 *914:D 0.000159317
2 *893:X 0.000159317
3 *914:D *873:C 6.70275e-05
4 *914:D *873:D_N 0
5 *914:D *891:B1 7.70553e-06
6 *914:D *893:B 4.66108e-05
7 *914:D *893:C 9.14049e-05
8 *914:D *146:97 3.78652e-05
*RES
1 *893:X *914:D 10.3687 
*END

*D_NET *21 0.000398445
*CONN
*I *915:D I *D sky130_fd_sc_hd__dfxtp_2
*I *895:Y O *D sky130_fd_sc_hd__a21oi_2
*CAP
1 *915:D 0.000149293
2 *895:Y 0.000149293
3 *915:D *895:A1 3.45679e-05
4 *915:D *895:A2 0
5 *915:D *895:B1 6.52906e-05
*RES
1 *895:Y *915:D 10.0238 
*END

*D_NET *22 0.000386409
*CONN
*I *916:D I *D sky130_fd_sc_hd__dfxtp_2
*I *898:X O *D sky130_fd_sc_hd__and3b_2
*CAP
1 *916:D 9.56022e-05
2 *898:X 9.56022e-05
3 *916:D *898:C 0.000122325
4 *916:D *906:A 7.28794e-05
5 *916:D *53:25 0
*RES
1 *898:X *916:D 5.27375 
*END

*D_NET *23 0.000270598
*CONN
*I *917:D I *D sky130_fd_sc_hd__dfxtp_2
*I *900:X O *D sky130_fd_sc_hd__o21ba_2
*CAP
1 *917:D 6.5943e-05
2 *900:X 6.5943e-05
3 *917:D *900:B1_N 0.000117832
4 *917:D *917:CLK 1.43717e-05
5 *917:D *51:39 6.50844e-06
6 *917:D *53:25 0
*RES
1 *900:X *917:D 8.71875 
*END

*D_NET *24 0.000559911
*CONN
*I *918:D I *D sky130_fd_sc_hd__dfxtp_2
*I *903:X O *D sky130_fd_sc_hd__and3b_2
*CAP
1 *918:D 0.000140023
2 *903:X 0.000140023
3 *918:D *876:B 0.000139933
4 *918:D *903:C 0.000139933
*RES
1 *903:X *918:D 10.005 
*END

*D_NET *25 0.00051672
*CONN
*I *919:D I *D sky130_fd_sc_hd__dfxtp_2
*I *906:X O *D sky130_fd_sc_hd__and3_2
*CAP
1 *919:D 0.000176761
2 *906:X 0.000176761
3 *919:D *919:CLK 0.000163199
*RES
1 *906:X *919:D 5.96375 
*END

*D_NET *26 0.000578239
*CONN
*I *920:D I *D sky130_fd_sc_hd__dfxtp_2
*I *908:X O *D sky130_fd_sc_hd__o211a_2
*CAP
1 *920:D 0.000211794
2 *908:X 0.000211794
3 *920:D *908:A1 0.000118652
4 *920:D *136:14 3.59997e-05
5 *920:D *137:29 0
*RES
1 *908:X *920:D 11.4487 
*END

*D_NET *27 0.000354267
*CONN
*I *921:D I *D sky130_fd_sc_hd__dfxtp_2
*I *804:X O *D sky130_fd_sc_hd__and3b_2
*CAP
1 *921:D 0.000107703
2 *804:X 0.000107703
3 *921:D *804:C 7.63125e-05
4 *921:D *869:A 5.53249e-06
5 *921:D *903:B 0
6 *921:D *108:8 2.92279e-05
7 *921:D *120:102 4.43871e-06
8 *921:D *138:38 2.33494e-05
*RES
1 *804:X *921:D 9.555 
*END

*D_NET *28 0.000581403
*CONN
*I *922:D I *D sky130_fd_sc_hd__dfxtp_2
*I *807:X O *D sky130_fd_sc_hd__and3b_2
*CAP
1 *922:D 0.000276321
2 *807:X 0.000276321
3 *922:D *806:A 0
4 *922:D *807:C 1.4389e-05
5 *922:D *64:12 0
6 *922:D *124:14 1.43717e-05
*RES
1 *807:X *922:D 11.2087 
*END

*D_NET *29 0.000598238
*CONN
*I *923:D I *D sky130_fd_sc_hd__dfxtp_2
*I *809:X O *D sky130_fd_sc_hd__o21ba_2
*CAP
1 *923:D 0.000139026
2 *809:X 0.000139026
3 *923:D *805:B 5.19006e-06
4 *923:D *923:CLK 8.9257e-05
5 *923:D *62:18 5.18008e-05
6 *923:D *120:55 8.9257e-05
7 *923:D *124:14 8.46818e-05
*RES
1 *809:X *923:D 10.0688 
*END

*D_NET *30 0.000423441
*CONN
*I *924:D I *D sky130_fd_sc_hd__dfxtp_2
*I *812:X O *D sky130_fd_sc_hd__and3b_2
*CAP
1 *924:D 0.000211721
2 *812:X 0.000211721
3 *924:D *812:A_N 0
4 *924:D *924:CLK 0
5 *924:D *126:10 0
*RES
1 *812:X *924:D 10.3538 
*END

*D_NET *31 0.000719566
*CONN
*I *925:D I *D sky130_fd_sc_hd__dfxtp_2
*I *815:X O *D sky130_fd_sc_hd__o21ba_2
*CAP
1 *925:D 0.000308806
2 *815:X 0.000308806
3 *925:D *815:B1_N 1.83847e-05
4 *925:D *924:CLK 1.70935e-05
5 *925:D *934:CLK 5.21046e-05
6 *925:D *145:16 1.43717e-05
*RES
1 *815:X *925:D 11.2388 
*END

*D_NET *32 0.000918102
*CONN
*I *926:D I *D sky130_fd_sc_hd__dfxtp_2
*I *818:X O *D sky130_fd_sc_hd__and3_2
*CAP
1 *926:D 0.000285137
2 *818:X 0.000285137
3 *926:D *817:C 2.75145e-05
4 *926:D *818:C 0.0001249
5 *926:D *821:A2 3.19516e-05
6 *926:D *64:26 0.000118513
7 *926:D *128:36 4.49498e-05
*RES
1 *818:X *926:D 11.82 
*END

*D_NET *33 0.000369124
*CONN
*I *927:D I *D sky130_fd_sc_hd__dfxtp_2
*I *821:X O *D sky130_fd_sc_hd__o211a_2
*CAP
1 *927:D 0.00010892
2 *821:X 0.00010892
3 *927:D *821:A1 6.28687e-05
4 *927:D *129:8 8.84163e-05
*RES
1 *821:X *927:D 9.40875 
*END

*D_NET *34 0.000344355
*CONN
*I *928:D I *D sky130_fd_sc_hd__dfxtp_2
*I *823:Y O *D sky130_fd_sc_hd__nor2_2
*CAP
1 *928:D 0.000137939
2 *823:Y 0.000137939
3 *928:D *823:A 6.72833e-06
4 *928:D *67:10 0
5 *928:D *121:63 2.0187e-05
6 *928:D *143:29 4.15611e-05
*RES
1 *823:Y *928:D 9.42375 
*END

*D_NET *35 0.00138666
*CONN
*I *929:D I *D sky130_fd_sc_hd__dfxtp_2
*I *827:X O *D sky130_fd_sc_hd__and3b_2
*CAP
1 *929:D 0.00040218
2 *827:X 0.00040218
3 *929:D *823:B 9.23635e-05
4 *929:D *826:A 0.000136284
5 *929:D *120:30 8.49205e-05
6 *929:D *120:43 0.000161529
7 *929:D *121:50 0.000107203
8 *929:D *143:11 0
*RES
1 *827:X *929:D 15.3488 
*END

*D_NET *36 0.00117266
*CONN
*I *930:D I *D sky130_fd_sc_hd__dfxtp_2
*I *831:X O *D sky130_fd_sc_hd__o21a_2
*CAP
1 *930:D 0.000173377
2 *831:X 0.000173377
3 *930:D *832:B 1.26548e-05
4 *930:D *870:C 0.000185398
5 *930:D *871:C 0.000229203
6 *930:D *930:CLK 7.7152e-05
7 *930:D *116:132 2.92279e-05
8 *930:D *140:33 1.95461e-05
9 *930:D *143:11 5.39718e-05
10 *930:D *143:65 0.000218754
*RES
1 *831:X *930:D 13.635 
*END

*D_NET *37 0.000291645
*CONN
*I *931:D I *D sky130_fd_sc_hd__dfxtp_2
*I *833:X O *D sky130_fd_sc_hd__and3_2
*CAP
1 *931:D 4.25679e-05
2 *833:X 4.25679e-05
3 *931:D *833:C 0.000156547
4 *931:D *931:CLK 4.99619e-05
*RES
1 *833:X *931:D 4.61 
*END

*D_NET *38 0.00127545
*CONN
*I *932:D I *D sky130_fd_sc_hd__dfxtp_2
*I *837:X O *D sky130_fd_sc_hd__or2_2
*CAP
1 *932:D 0.000413753
2 *837:X 0.000413753
3 *932:D *837:B 0
4 *932:D *910:CLK 3.12855e-05
5 *932:D *946:A 0.000156225
6 *932:D *104:43 9.85015e-05
7 *932:D *144:10 4.72867e-05
8 *932:D *144:80 0.000114649
*RES
1 *837:X *932:D 15.03 
*END

*D_NET *39 0.00112563
*CONN
*I *933:D I *D sky130_fd_sc_hd__dfxtp_2
*I *840:X O *D sky130_fd_sc_hd__or2_2
*CAP
1 *933:D 0.000399121
2 *840:X 0.000399121
3 *933:D *835:A0 1.03323e-05
4 *933:D *835:A1 7.36562e-05
5 *933:D *835:S 9.91651e-05
6 *933:D *836:A0 0.000124007
7 *933:D *838:A1 1.54049e-05
8 *933:D *839:A0 4.82319e-06
9 *933:D *842:S 0
*RES
1 *840:X *933:D 12.8737 
*END

*D_NET *40 0.00217586
*CONN
*I *934:D I *D sky130_fd_sc_hd__dfxtp_2
*I *843:X O *D sky130_fd_sc_hd__or2_2
*CAP
1 *934:D 0.000687479
2 *843:X 0.000687479
3 *934:D *835:A1 0.000355896
4 *934:D *836:A0 0.00018305
5 *934:D *842:A0 5.02217e-05
6 *934:D *842:A1 8.16631e-05
7 *934:D *843:A 4.89295e-05
8 *934:D *843:B 2.04923e-05
9 *934:D *82:106 0
10 *934:D *162:10 6.06486e-05
*RES
1 *843:X *934:D 20.3137 
*END

*D_NET *41 0.000371288
*CONN
*I *935:D I *D sky130_fd_sc_hd__dfxtp_2
*I *846:X O *D sky130_fd_sc_hd__or2_2
*CAP
1 *935:D 0.000126381
2 *846:X 0.000126381
3 *935:D *845:A0 0.000118527
4 *935:D *845:A1 0
5 *935:D *163:10 0
*RES
1 *846:X *935:D 9.40875 
*END

*D_NET *42 0.000426204
*CONN
*I *936:D I *D sky130_fd_sc_hd__dfxtp_2
*I *849:X O *D sky130_fd_sc_hd__or2_2
*CAP
1 *936:D 0.000135722
2 *849:X 0.000135722
3 *936:D *849:B 6.4422e-05
4 *936:D *144:35 0
5 *936:D *144:44 9.03376e-05
*RES
1 *849:X *936:D 9.91875 
*END

*D_NET *43 0.000634163
*CONN
*I *937:D I *D sky130_fd_sc_hd__dfxtp_2
*I *852:X O *D sky130_fd_sc_hd__or2_2
*CAP
1 *937:D 0.000241736
2 *852:X 0.000241736
3 *937:D *144:27 9.99182e-05
4 *937:D *144:31 5.07723e-05
*RES
1 *852:X *937:D 6.77375 
*END

*D_NET *44 0.000477386
*CONN
*I *938:D I *D sky130_fd_sc_hd__dfxtp_2
*I *855:X O *D sky130_fd_sc_hd__or2_2
*CAP
1 *938:D 0.000196935
2 *855:X 0.000196935
3 *938:D *938:CLK 8.35157e-05
*RES
1 *855:X *938:D 6.455 
*END

*D_NET *45 0.000545578
*CONN
*I *939:D I *D sky130_fd_sc_hd__dfxtp_2
*I *858:X O *D sky130_fd_sc_hd__or2_2
*CAP
1 *939:D 0.000180614
2 *858:X 0.000180614
3 *939:D *858:B 1.17409e-05
4 *939:D *939:CLK 0.000106849
5 *939:D *116:37 4.82919e-05
6 *939:D *121:16 1.74678e-05
*RES
1 *858:X *939:D 5.94875 
*END

*D_NET *46 0.000748473
*CONN
*I *940:D I *D sky130_fd_sc_hd__dfxtp_2
*I *859:X O *D sky130_fd_sc_hd__a21o_2
*CAP
1 *940:D 0.000150296
2 *859:X 0.000150296
3 *940:D *859:A1 3.39151e-05
4 *940:D *859:A2 0
5 *940:D *146:14 0.000242666
6 *940:D *150:28 4.66108e-05
7 *940:D *150:32 2.92496e-05
8 *940:D *150:52 9.54399e-05
*RES
1 *859:X *940:D 10.7887 
*END

*D_NET *47 0.00464324
*CONN
*I *908:C1 I *D sky130_fd_sc_hd__o211a_2
*I *906:A I *D sky130_fd_sc_hd__and3_2
*I *898:C I *D sky130_fd_sc_hd__and3b_2
*I *887:Y O *D sky130_fd_sc_hd__nor2_2
*CAP
1 *908:C1 0.000844912
2 *906:A 0.000369512
3 *898:C 0.000176803
4 *887:Y 0.00100967
5 *47:12 0.000711071
6 *906:A *867:B 8.8266e-05
7 *906:A *896:B 7.81829e-05
8 *906:A *919:CLK 0.0001249
9 *906:A *133:26 4.11678e-06
10 *906:A *133:30 9.30717e-05
11 *906:A *147:78 0.000501139
12 *908:C1 *875:C 1.92979e-05
13 *908:C1 *906:B 0
14 *908:C1 *908:B1 2.28346e-05
15 *908:C1 *51:50 2.05571e-05
16 *47:12 *876:B 9.80032e-06
17 *47:12 *887:B 4.99619e-05
18 *47:12 *897:A2 4.39001e-05
19 *47:12 *899:A1 0
20 *47:12 *900:A1 0
21 *47:12 *902:D 5.83121e-06
22 *47:12 *916:CLK 9.14049e-05
23 *47:12 *51:50 9.78798e-05
24 *47:12 *134:33 8.49205e-05
25 *916:D *898:C 0.000122325
26 *916:D *906:A 7.28794e-05
*RES
1 *887:Y *47:12 9.56 
2 *47:12 *898:C 3.74125 
3 *47:12 *906:A 13.835 
4 *887:Y *908:C1 10.2981 
*END

*D_NET *48 0.000712332
*CONN
*I *890:A I *D sky130_fd_sc_hd__nor2_2
*I *888:Y O *D sky130_fd_sc_hd__a21oi_2
*CAP
1 *890:A 0.00022017
2 *888:Y 0.00022017
3 *890:A *888:A2 2.96426e-05
4 *890:A *890:B 8.71912e-05
5 *890:A *146:33 0.000143501
6 *890:A *150:69 1.16578e-05
7 *4:18 *890:A 0
*RES
1 *888:Y *890:A 11.595 
*END

*D_NET *49 0.00108631
*CONN
*I *890:B I *D sky130_fd_sc_hd__nor2_2
*I *889:X O *D sky130_fd_sc_hd__a311o_2
*CAP
1 *890:B 0.000416354
2 *889:X 0.000416354
3 *890:B *888:A2 0.000113344
4 *890:B *888:B1 5.30673e-05
5 *890:A *890:B 8.71912e-05
6 *4:18 *890:B 0
*RES
1 *889:X *890:B 13.08 
*END

*D_NET *50 0.00109802
*CONN
*I *893:C I *D sky130_fd_sc_hd__and3b_2
*I *891:X O *D sky130_fd_sc_hd__a31o_2
*CAP
1 *893:C 0.0003888
2 *891:X 0.0003888
3 *893:C *873:C 1.43717e-05
4 *893:C *873:D_N 0
5 *893:C *891:B1 1.18521e-05
6 *893:C *893:A_N 0
7 *893:C *123:60 2.50602e-05
8 *893:C *123:75 1.77686e-05
9 *893:C *146:97 0.000159964
10 *914:D *893:C 9.14049e-05
*RES
1 *891:X *893:C 12.7987 
*END

*D_NET *51 0.00815979
*CONN
*I *895:A2 I *D sky130_fd_sc_hd__a21oi_2
*I *894:A2 I *D sky130_fd_sc_hd__o21ai_2
*I *897:A2 I *D sky130_fd_sc_hd__a21o_2
*I *902:D I *D sky130_fd_sc_hd__and4_2
*I *901:A3 I *D sky130_fd_sc_hd__a31o_2
*I *896:C I *D sky130_fd_sc_hd__and3_2
*I *893:A_N I *D sky130_fd_sc_hd__and3b_2
*I *892:X O *D sky130_fd_sc_hd__and4_2
*CAP
1 *895:A2 0.00022746
2 *894:A2 0
3 *897:A2 0.000152655
4 *902:D 5.31223e-05
5 *901:A3 0.000579246
6 *896:C 0
7 *893:A_N 0.000167047
8 *892:X 0
9 *51:50 0.000757662
10 *51:48 0.000289879
11 *51:39 0.000709619
12 *51:29 0.00103871
13 *51:8 0.000558755
14 *51:6 0.000278145
15 *893:A_N *873:B 0.000160064
16 *893:A_N *873:C 4.89295e-05
17 *893:A_N *873:D_N 0.000215345
18 *893:A_N *893:B 8.12896e-06
19 *893:A_N *894:B1 1.17309e-05
20 *893:A_N *120:163 6.26955e-05
21 *895:A2 *892:D 2.95708e-05
22 *897:A2 *897:B1 0.000109016
23 *897:A2 *898:B 0
24 *897:A2 *916:CLK 1.65192e-05
25 *897:A2 *133:30 0.000203755
26 *901:A3 *876:B 0
27 *901:A3 *901:A2 0.000171378
28 *901:A3 *948:A 8.31082e-05
29 *901:A3 *57:14 0
30 *901:A3 *121:94 0
31 *901:A3 *147:10 0
32 *902:D *875:C 0.000203178
33 *902:D *876:B 0.000238137
34 *902:D *134:33 2.59926e-05
35 *51:8 *873:B 2.82887e-05
36 *51:8 *892:B 6.88421e-05
37 *51:8 *892:D 1.88656e-05
38 *51:8 *895:B1 0
39 *51:8 *915:CLK 0
40 *51:29 *873:A 1.61831e-05
41 *51:29 *894:B1 0.000217529
42 *51:29 *895:B1 0.000163204
43 *51:29 *917:CLK 0
44 *51:29 *131:6 0.000190633
45 *51:29 *131:8 4.66108e-05
46 *51:39 *867:B 1.85674e-05
47 *51:39 *917:CLK 0.000118119
48 *51:39 *53:8 0.000283127
49 *51:39 *134:8 0.000200615
50 *51:39 *147:78 2.86752e-05
51 *51:48 *134:8 1.34503e-05
52 *51:48 *147:78 4.82863e-05
53 *51:50 *867:A 1.75703e-05
54 *51:50 *875:C 1.71207e-05
55 *51:50 *106:12 0
56 *51:50 *132:47 0
57 *51:50 *133:30 8.53113e-06
58 *51:50 *134:12 8.10457e-05
59 *893:C *893:A_N 0
60 *908:C1 *51:50 2.05571e-05
61 *915:D *895:A2 0
62 *917:D *51:39 6.50844e-06
63 *47:12 *897:A2 4.39001e-05
64 *47:12 *902:D 5.83121e-06
65 *47:12 *51:50 9.78798e-05
*RES
1 *892:X *51:6 3.6 
2 *51:6 *51:8 1.125 
3 *51:8 *893:A_N 7.65 
4 *51:8 *51:29 8.36 
5 *51:29 *51:39 11.28 
6 *51:39 *896:C 1.6 
7 *51:39 *51:48 2.45 
8 *51:48 *51:50 2.655 
9 *51:50 *901:A3 13.185 
10 *51:50 *902:D 6.12 
11 *51:48 *897:A2 7.53 
12 *51:29 *894:A2 1.6 
13 *51:6 *895:A2 7.155 
*END

*D_NET *52 0.000841352
*CONN
*I *895:B1 I *D sky130_fd_sc_hd__a21oi_2
*I *894:Y O *D sky130_fd_sc_hd__o21ai_2
*CAP
1 *895:B1 0.000231629
2 *894:Y 0.000231629
3 *895:B1 *873:A 2.30292e-05
4 *895:B1 *892:D 0
5 *895:B1 *894:A1 0
6 *895:B1 *894:B1 0.00012657
7 *895:B1 *132:21 0
8 *915:D *895:B1 6.52906e-05
9 *51:8 *895:B1 0
10 *51:29 *895:B1 0.000163204
*RES
1 *894:Y *895:B1 12.36 
*END

*D_NET *53 0.0015866
*CONN
*I *898:A_N I *D sky130_fd_sc_hd__and3b_2
*I *900:A2 I *D sky130_fd_sc_hd__o21ba_2
*I *899:A2 I *D sky130_fd_sc_hd__a211o_2
*I *896:X O *D sky130_fd_sc_hd__and3_2
*CAP
1 *898:A_N 0
2 *900:A2 7.422e-05
3 *899:A2 0.000108181
4 *896:X 5.93744e-05
5 *53:25 0.00019431
6 *53:8 0.000287646
7 *899:A2 *899:A1 4.58406e-05
8 *899:A2 *900:A1 7.07801e-05
9 *899:A2 *900:B1_N 0
10 *900:A2 *900:A1 4.99619e-05
11 *53:8 *917:CLK 0.000352161
12 *53:25 *900:A1 6.10014e-05
13 *916:D *53:25 0
14 *917:D *53:25 0
15 *51:39 *53:8 0.000283127
*RES
1 *896:X *53:8 6.81 
2 *53:8 *899:A2 6 
3 *53:8 *53:25 4.19 
4 *53:25 *900:A2 3.1 
5 *53:25 *898:A_N 1.6 
*END

*D_NET *54 0.000340725
*CONN
*I *898:B I *D sky130_fd_sc_hd__and3b_2
*I *897:X O *D sky130_fd_sc_hd__a21o_2
*CAP
1 *898:B 0.000149834
2 *897:X 0.000149834
3 *898:B *132:32 4.10576e-05
4 *897:A2 *898:B 0
*RES
1 *897:X *898:B 9.21 
*END

*D_NET *55 0.000786323
*CONN
*I *900:B1_N I *D sky130_fd_sc_hd__o21ba_2
*I *899:X O *D sky130_fd_sc_hd__a211o_2
*CAP
1 *900:B1_N 0.000305558
2 *899:X 0.000305558
3 *900:B1_N *876:B 5.73739e-05
4 *900:B1_N *894:A1 0
5 *900:B1_N *900:A1 0
6 *900:B1_N *132:21 0
7 *899:A2 *900:B1_N 0
8 *917:D *900:B1_N 0.000117832
*RES
1 *899:X *900:B1_N 12.105 
*END

*D_NET *56 0.000680352
*CONN
*I *903:C I *D sky130_fd_sc_hd__and3b_2
*I *901:X O *D sky130_fd_sc_hd__a31o_2
*CAP
1 *903:C 0.000204634
2 *901:X 0.000204634
3 *903:C *876:B 0.000127501
4 *903:C *876:D_N 0
5 *903:C *901:A1 0
6 *903:C *903:B 3.64998e-06
7 *918:D *903:C 0.000139933
*RES
1 *901:X *903:C 11.5238 
*END

*D_NET *57 0.00648092
*CONN
*I *904:B I *D sky130_fd_sc_hd__or2_2
*I *905:B I *D sky130_fd_sc_hd__nand2_2
*I *909:A2 I *D sky130_fd_sc_hd__a21o_2
*I *806:D I *D sky130_fd_sc_hd__and4_2
*I *903:A_N I *D sky130_fd_sc_hd__and3b_2
*I *803:D I *D sky130_fd_sc_hd__and4_2
*I *902:X O *D sky130_fd_sc_hd__and4_2
*CAP
1 *904:B 0
2 *905:B 0.000277341
3 *909:A2 0.000207759
4 *806:D 0.00015098
5 *903:A_N 0.000287302
6 *803:D 0
7 *902:X 0.000827267
8 *57:48 0.000525808
9 *57:28 0.000453456
10 *57:20 0.000647784
11 *57:16 0.000591902
12 *57:14 0.000827267
13 *806:D *804:C 0.000171595
14 *806:D *806:C 1.26548e-05
15 *806:D *872:C 2.75229e-05
16 *806:D *909:A1 3.60481e-05
17 *806:D *138:14 0.000206123
18 *903:A_N *803:B 1.16578e-05
19 *903:A_N *903:B 0.000241777
20 *905:B *136:14 2.30292e-05
21 *905:B *136:20 0.000183311
22 *905:B *136:31 3.90266e-05
23 *905:B *137:29 1.17118e-05
24 *909:A2 *804:C 0
25 *57:14 *876:B 7.23602e-05
26 *57:14 *904:A 2.75229e-05
27 *57:14 *906:B 0.000199833
28 *57:14 *147:10 2.18044e-05
29 *57:20 *869:A 6.65915e-05
30 *57:20 *909:B1 5.65256e-05
31 *57:20 *136:31 2.97004e-06
32 *57:20 *136:33 0.000203876
33 *57:20 *138:38 3.79595e-05
34 *57:28 *869:A 9.58678e-06
35 *57:28 *903:B 2.05641e-05
36 *901:A3 *57:14 0
*RES
1 *902:X *57:14 15.47 
2 *57:14 *57:16 2 
3 *57:16 *57:20 7.6175 
4 *57:20 *57:28 3.00357 
5 *57:28 *803:D 1.6 
6 *57:28 *903:A_N 7.015 
7 *57:20 *57:48 0.271067 
8 *57:48 *806:D 8.3525 
9 *57:48 *909:A2 5.20453 
10 *57:16 *905:B 7.98 
11 *57:14 *904:B 1.6 
*END

*D_NET *58 0.000772415
*CONN
*I *906:B I *D sky130_fd_sc_hd__and3_2
*I *904:X O *D sky130_fd_sc_hd__or2_2
*CAP
1 *906:B 0.000286291
2 *904:X 0.000286291
3 *906:B *908:B1 0
4 *906:B *147:61 0
5 *908:C1 *906:B 0
6 *57:14 *906:B 0.000199833
*RES
1 *904:X *906:B 12.195 
*END

*D_NET *59 0.00191597
*CONN
*I *908:A2 I *D sky130_fd_sc_hd__o211a_2
*I *907:B I *D sky130_fd_sc_hd__nand2_2
*I *906:C I *D sky130_fd_sc_hd__and3_2
*I *905:Y O *D sky130_fd_sc_hd__nand2_2
*CAP
1 *908:A2 0
2 *907:B 3.55506e-05
3 *906:C 0.000101341
4 *905:Y 5.52427e-05
5 *59:16 0.000392353
6 *59:8 0.000310704
7 *906:C *908:B1 0
8 *906:C *920:CLK 1.83847e-05
9 *59:8 *908:A1 1.12643e-05
10 *59:8 *136:20 0.000114896
11 *59:8 *137:29 0.000134338
12 *59:16 *908:A1 0.000314445
13 *59:16 *908:B1 0.000362724
14 *59:16 *920:CLK 6.47326e-05
*RES
1 *905:Y *59:8 3.79 
2 *59:8 *59:16 9.85 
3 *59:16 *906:C 6.92 
4 *59:16 *907:B 2.215 
5 *59:8 *908:A2 1.6 
*END

*D_NET *60 0.000831473
*CONN
*I *908:B1 I *D sky130_fd_sc_hd__o211a_2
*I *907:Y O *D sky130_fd_sc_hd__nand2_2
*CAP
1 *908:B1 0.00020381
2 *907:Y 0.00020381
3 *908:B1 *908:A1 1.07797e-05
4 *908:B1 *920:CLK 2.75145e-05
5 *906:B *908:B1 0
6 *906:C *908:B1 0
7 *908:C1 *908:B1 2.28346e-05
8 *59:16 *908:B1 0.000362724
*RES
1 *907:Y *908:B1 11.58 
*END

*D_NET *61 0.00101933
*CONN
*I *804:C I *D sky130_fd_sc_hd__and3b_2
*I *909:X O *D sky130_fd_sc_hd__a21o_2
*CAP
1 *804:C 0.000208225
2 *909:X 0.000208225
3 *804:C *869:A 0
4 *804:C *872:C 8.45071e-05
5 *804:C *909:B1 3.64558e-05
6 *804:C *64:10 0.000145337
7 *804:C *120:102 0
8 *804:C *138:38 8.86692e-05
9 *806:D *804:C 0.000171595
10 *909:A2 *804:C 0
11 *921:D *804:C 7.63125e-05
*RES
1 *909:X *804:C 12.9525 
*END

*D_NET *62 0.00383314
*CONN
*I *804:A_N I *D sky130_fd_sc_hd__and3b_2
*I *805:B I *D sky130_fd_sc_hd__or2_2
*I *808:A3 I *D sky130_fd_sc_hd__a31o_2
*I *811:D I *D sky130_fd_sc_hd__and4_2
*I *803:X O *D sky130_fd_sc_hd__and4_2
*CAP
1 *804:A_N 0
2 *805:B 0.000263999
3 *808:A3 0
4 *811:D 0.0002648
5 *803:X 0.000109161
6 *62:18 0.000487487
7 *62:12 0.000855252
8 *62:8 0.000477726
9 *805:B *125:10 0.000196084
10 *811:D *808:B1 6.90254e-05
11 *811:D *929:CLK 2.69153e-05
12 *62:8 *872:D 0.000169542
13 *62:8 *903:B 0.000251595
14 *62:8 *120:102 0
15 *62:12 *872:D 5.53249e-06
16 *62:12 *876:C 0
17 *62:12 *64:10 0.000252806
18 *62:12 *64:12 0.000153054
19 *62:12 *120:55 9.76188e-05
20 *62:12 *120:102 0
21 *62:18 *809:B1_N 4.77769e-05
22 *62:18 *923:CLK 4.77769e-05
23 *923:D *805:B 5.19006e-06
24 *923:D *62:18 5.18008e-05
*RES
1 *803:X *62:8 7.275 
2 *62:8 *62:12 10.775 
3 *62:12 *62:18 3.33 
4 *62:18 *811:D 9.215 
5 *62:18 *808:A3 1.6 
6 *62:12 *805:B 6.205 
7 *62:8 *804:A_N 3.6 
*END

*D_NET *63 0.000838068
*CONN
*I *807:C I *D sky130_fd_sc_hd__and3b_2
*I *805:X O *D sky130_fd_sc_hd__or2_2
*CAP
1 *807:C 0.000352201
2 *805:X 0.000352201
3 *807:C *806:A 0.000119277
4 *922:D *807:C 1.4389e-05
*RES
1 *805:X *807:C 12.9825 
*END

*D_NET *64 0.0065153
*CONN
*I *807:A_N I *D sky130_fd_sc_hd__and3b_2
*I *809:A2 I *D sky130_fd_sc_hd__o21ba_2
*I *816:A2 I *D sky130_fd_sc_hd__a31o_2
*I *817:C I *D sky130_fd_sc_hd__nand4_2
*I *820:C I *D sky130_fd_sc_hd__nand4_2
*I *810:A2 I *D sky130_fd_sc_hd__a21o_2
*I *814:A2 I *D sky130_fd_sc_hd__a31o_2
*I *819:A3 I *D sky130_fd_sc_hd__a41o_2
*I *806:X O *D sky130_fd_sc_hd__and4_2
*CAP
1 *807:A_N 0
2 *809:A2 2.84902e-05
3 *816:A2 9.48626e-05
4 *817:C 2.32329e-05
5 *820:C 9.79893e-06
6 *810:A2 1.88809e-05
7 *814:A2 0.000138008
8 *819:A3 7.73546e-05
9 *806:X 0.000319352
10 *64:43 0.000224786
11 *64:41 9.54706e-05
12 *64:26 0.000352679
13 *64:16 0.000428319
14 *64:14 0.000424968
15 *64:12 0.000396182
16 *64:10 0.000504476
17 *809:A2 *124:14 0.000159179
18 *809:A2 *125:38 8.52972e-05
19 *809:A2 *125:46 8.53011e-05
20 *810:A2 *820:D 5.4155e-06
21 *814:A2 *810:B1 8.65961e-05
22 *814:A2 *812:B 9.66106e-05
23 *814:A2 *814:A3 2.49909e-05
24 *814:A2 *819:A2 0
25 *814:A2 *820:D 0.000164521
26 *814:A2 *126:21 3.09164e-05
27 *814:A2 *126:32 0.000118527
28 *816:A2 *816:A3 4.90291e-05
29 *819:A3 *819:A4 5.38986e-06
30 *819:A3 *821:C1 0.000116158
31 *819:A3 *874:A 0.00012657
32 *819:A3 *927:CLK 0.000202758
33 *819:A3 *120:57 3.09233e-05
34 *819:A3 *128:18 2.55587e-05
35 *820:C *820:B 5.4155e-06
36 *820:C *820:D 4.00541e-06
37 *64:10 *872:C 5.03646e-05
38 *64:10 *120:102 0.000256456
39 *64:12 *120:102 5.74095e-05
40 *64:12 *125:10 3.97568e-05
41 *64:14 *817:B 5.96623e-06
42 *64:14 *125:10 6.54361e-06
43 *64:14 *125:12 9.97977e-05
44 *64:16 *816:A3 0
45 *64:16 *817:B 9.2575e-05
46 *64:26 *817:B 2.97004e-06
47 *64:26 *819:A4 0
48 *64:26 *820:A 3.69428e-05
49 *64:26 *820:B 6.07575e-06
50 *64:26 *821:A2 0.000198945
51 *64:26 *926:CLK 0.000232999
52 *64:26 *128:36 0
53 *64:43 *812:B 8.18626e-05
54 *64:43 *820:B 4.01778e-05
55 *64:43 *820:D 4.92062e-05
56 *804:C *64:10 0.000145337
57 *922:D *64:12 0
58 *926:D *817:C 2.75145e-05
59 *926:D *64:26 0.000118513
60 *62:12 *64:10 0.000252806
61 *62:12 *64:12 0.000153054
*RES
1 *806:X *64:10 11.325 
2 *64:10 *64:12 4.44 
3 *64:12 *64:14 3.675 
4 *64:14 *64:16 2.91 
5 *64:16 *64:26 7.475 
6 *64:26 *819:A3 8.375 
7 *64:26 *64:41 0.36 
8 *64:41 *64:43 1.83 
9 *64:43 *814:A2 9.515 
10 *64:43 *810:A2 1.96 
11 *64:41 *820:C 1.96 
12 *64:16 *817:C 4.05 
13 *64:14 *816:A2 4.74 
14 *64:12 *809:A2 5.085 
15 *64:10 *807:A_N 3.6 
*END

*D_NET *65 0.000375393
*CONN
*I *809:B1_N I *D sky130_fd_sc_hd__o21ba_2
*I *808:X O *D sky130_fd_sc_hd__a31o_2
*CAP
1 *809:B1_N 9.21144e-05
2 *808:X 9.21144e-05
3 *809:B1_N *876:C 7.25617e-05
4 *809:B1_N *923:CLK 5.4419e-05
5 *809:B1_N *145:91 1.64067e-05
6 *62:18 *809:B1_N 4.77769e-05
*RES
1 *808:X *809:B1_N 9.285 
*END

*D_NET *66 0.000940176
*CONN
*I *812:C I *D sky130_fd_sc_hd__and3b_2
*I *810:X O *D sky130_fd_sc_hd__a21o_2
*CAP
1 *812:C 0.000284705
2 *810:X 0.000284705
3 *812:C *812:A_N 5.30673e-05
4 *812:C *812:B 8.24842e-05
5 *812:C *819:A2 0
6 *812:C *874:C 2.10034e-05
7 *812:C *874:D 2.49909e-05
8 *812:C *126:10 5.23362e-05
9 *812:C *126:21 0.000136884
*RES
1 *810:X *812:C 11.8988 
*END

*D_NET *67 0.00204013
*CONN
*I *815:A2 I *D sky130_fd_sc_hd__o21ba_2
*I *812:A_N I *D sky130_fd_sc_hd__and3b_2
*I *811:X O *D sky130_fd_sc_hd__and4_2
*CAP
1 *815:A2 0
2 *812:A_N 0.000216232
3 *811:X 0.000464957
4 *67:10 0.000681189
5 *812:A_N *812:B 2.96426e-05
6 *812:A_N *874:C 5.83244e-05
7 *812:A_N *126:21 0
8 *812:A_N *127:21 0.000129056
9 *812:A_N *145:16 0
10 *67:10 *811:A 0.000122821
11 *67:10 *813:A 0.000192257
12 *67:10 *929:CLK 5.8403e-05
13 *67:10 *127:21 5.53249e-06
14 *67:10 *143:29 2.86462e-05
15 *67:10 *145:16 0
16 *812:C *812:A_N 5.30673e-05
17 *924:D *812:A_N 0
18 *928:D *67:10 0
*RES
1 *811:X *67:10 11.835 
2 *67:10 *812:A_N 8.58 
3 *67:10 *815:A2 3.6 
*END

*D_NET *68 0.00406062
*CONN
*I *817:D I *D sky130_fd_sc_hd__nand4_2
*I *816:A3 I *D sky130_fd_sc_hd__a31o_2
*I *819:A4 I *D sky130_fd_sc_hd__a41o_2
*I *814:A3 I *D sky130_fd_sc_hd__a31o_2
*I *820:D I *D sky130_fd_sc_hd__nand4_2
*I *813:X O *D sky130_fd_sc_hd__and2_2
*CAP
1 *817:D 3.28151e-05
2 *816:A3 0.000213108
3 *819:A4 0.000315671
4 *814:A3 2.60222e-05
5 *820:D 0.000164734
6 *813:X 0.000112442
7 *68:34 0.000528779
8 *68:32 0.000250462
9 *68:23 0.000243669
10 *68:8 0.000277176
11 *816:A3 *818:B 0.000135538
12 *816:A3 *120:55 4.90291e-05
13 *816:A3 *145:61 0.00019483
14 *817:D *818:C 7.57202e-05
15 *819:A4 *820:A 9.82856e-06
16 *819:A4 *874:A 3.4687e-05
17 *819:A4 *927:CLK 0.000183502
18 *819:A4 *145:61 0.000181376
19 *820:D *810:A1 8.65905e-05
20 *820:D *810:B1 4.99619e-05
21 *820:D *814:B1 1.22676e-05
22 *820:D *819:A2 0
23 *820:D *820:B 3.74161e-05
24 *820:D *125:48 0
25 *820:D *125:50 0
26 *820:D *126:32 2.68721e-05
27 *68:8 *814:B1 0.000119227
28 *68:8 *126:32 0.000169106
29 *68:32 *814:A1 9.66021e-05
30 *68:32 *818:A 4.66108e-05
31 *68:32 *818:C 8.40213e-05
32 *810:A2 *820:D 5.4155e-06
33 *814:A2 *814:A3 2.49909e-05
34 *814:A2 *820:D 0.000164521
35 *816:A2 *816:A3 4.90291e-05
36 *819:A3 *819:A4 5.38986e-06
37 *820:C *820:D 4.00541e-06
38 *64:16 *816:A3 0
39 *64:26 *819:A4 0
40 *64:43 *820:D 4.92062e-05
*RES
1 *813:X *68:8 7.275 
2 *68:8 *820:D 7.77 
3 *68:8 *68:23 2 
4 *68:23 *814:A3 2.05 
5 *68:23 *68:32 3.9 
6 *68:32 *68:34 2 
7 *68:34 *819:A4 8.88 
8 *68:34 *816:A3 8.865 
9 *68:32 *817:D 2.395 
*END

*D_NET *69 0.000368175
*CONN
*I *815:B1_N I *D sky130_fd_sc_hd__o21ba_2
*I *814:X O *D sky130_fd_sc_hd__a31o_2
*CAP
1 *815:B1_N 0.000174895
2 *814:X 0.000174895
3 *925:D *815:B1_N 1.83847e-05
*RES
1 *814:X *815:B1_N 5.72 
*END

*D_NET *70 0.00073948
*CONN
*I *818:B I *D sky130_fd_sc_hd__and3_2
*I *816:X O *D sky130_fd_sc_hd__a31o_2
*CAP
1 *818:B 0.000200166
2 *816:X 0.000200166
3 *818:B *120:55 0.000111252
4 *818:B *145:61 9.23578e-05
5 *816:A3 *818:B 0.000135538
*RES
1 *816:X *818:B 11.19 
*END

*D_NET *71 0.000490886
*CONN
*I *818:C I *D sky130_fd_sc_hd__and3_2
*I *817:Y O *D sky130_fd_sc_hd__nand4_2
*CAP
1 *818:C 0.000103122
2 *817:Y 0.000103122
3 *817:D *818:C 7.57202e-05
4 *926:D *818:C 0.0001249
5 *68:32 *818:C 8.40213e-05
*RES
1 *817:Y *818:C 5.645 
*END

*D_NET *72 0.000443884
*CONN
*I *821:B1 I *D sky130_fd_sc_hd__o211a_2
*I *819:X O *D sky130_fd_sc_hd__a41o_2
*CAP
1 *821:B1 9.17521e-05
2 *819:X 9.17521e-05
3 *821:B1 *821:A2 0.000139231
4 *821:B1 *927:CLK 3.45588e-05
5 *821:B1 *129:8 8.65905e-05
*RES
1 *819:X *821:B1 9.63 
*END

*D_NET *73 0.00135079
*CONN
*I *821:A2 I *D sky130_fd_sc_hd__o211a_2
*I *820:Y O *D sky130_fd_sc_hd__nand4_2
*CAP
1 *821:A2 0.000380664
2 *820:Y 0.000380664
3 *821:A2 *820:A 0
4 *821:A2 *821:A1 0.000125618
5 *821:A2 *926:CLK 2.30292e-05
6 *821:A2 *128:18 7.06865e-05
7 *821:B1 *821:A2 0.000139231
8 *926:D *821:A2 3.19516e-05
9 *64:26 *821:A2 0.000198945
*RES
1 *820:Y *821:A2 13.83 
*END

*D_NET *74 0.000828461
*CONN
*I *823:B I *D sky130_fd_sc_hd__nor2_2
*I *822:Y O *D sky130_fd_sc_hd__xnor2_2
*CAP
1 *823:B 0.000214712
2 *822:Y 0.000214712
3 *823:B *826:C 2.22026e-05
4 *823:B *121:50 0.00028447
5 *929:D *823:B 9.23635e-05
*RES
1 *822:Y *823:B 11.67 
*END

*D_NET *75 0.000686448
*CONN
*I *859:A2 I *D sky130_fd_sc_hd__a21o_2
*I *824:Y O *D sky130_fd_sc_hd__nand2_2
*CAP
1 *859:A2 0.000103075
2 *824:Y 0.000103075
3 *859:A2 *857:A1 6.5525e-05
4 *859:A2 *859:A1 9.86611e-05
5 *859:A2 *121:16 0.000316112
6 *940:D *859:A2 0
*RES
1 *824:Y *859:A2 10.875 
*END

*D_NET *76 0.000766478
*CONN
*I *827:C I *D sky130_fd_sc_hd__and3b_2
*I *825:X O *D sky130_fd_sc_hd__a31o_2
*CAP
1 *827:C 0.000314277
2 *825:X 0.000314277
3 *827:C *822:B 2.25161e-05
4 *827:C *825:A2 9.50342e-06
5 *827:C *826:A 4.61542e-05
6 *827:C *120:30 5.97504e-05
*RES
1 *825:X *827:C 11.2463 
*END

*D_NET *77 0.000818707
*CONN
*I *827:A_N I *D sky130_fd_sc_hd__and3b_2
*I *831:A2 I *D sky130_fd_sc_hd__o21a_2
*I *826:X O *D sky130_fd_sc_hd__and3_2
*CAP
1 *827:A_N 0
2 *831:A2 0.000114652
3 *826:X 0.000171999
4 *77:8 0.000286651
5 *831:A2 *826:A 8.8266e-05
6 *831:A2 *831:A1 9.50342e-06
7 *831:A2 *121:50 0
8 *831:A2 *143:11 7.55313e-05
9 *77:8 *826:A 3.25635e-05
10 *77:8 *120:43 3.95409e-05
*RES
1 *826:X *77:8 3.79 
2 *77:8 *831:A2 8.03 
3 *77:8 *827:A_N 1.6 
*END

*D_NET *78 0.00121796
*CONN
*I *829:D I *D sky130_fd_sc_hd__nor4_2
*I *828:Y O *D sky130_fd_sc_hd__nand2_2
*CAP
1 *829:D 0.000209957
2 *828:Y 0.000209957
3 *829:D *828:A 0.000109989
4 *829:D *828:B 0.000122337
5 *829:D *830:B 3.4687e-05
6 *829:D *831:A1 0.000245893
7 *829:D *99:10 4.82863e-05
8 *829:D *116:132 2.23407e-05
9 *829:D *143:65 0.000214516
*RES
1 *828:Y *829:D 13.485 
*END

*D_NET *79 0.00191838
*CONN
*I *830:B I *D sky130_fd_sc_hd__nor2_2
*I *832:B I *D sky130_fd_sc_hd__xor2_2
*I *829:Y O *D sky130_fd_sc_hd__nor4_2
*CAP
1 *830:B 0.000165393
2 *832:B 0.000267299
3 *829:Y 0.000432692
4 *830:B *99:10 0.000100057
5 *832:B *832:A 6.00003e-05
6 *832:B *871:A 1.26626e-05
7 *832:B *871:C 0.000354222
8 *832:B *140:33 0.000244511
9 *832:B *140:46 0.000231564
10 *832:B *143:65 2.63266e-06
11 *829:D *830:B 3.4687e-05
12 *930:D *832:B 1.26548e-05
*RES
1 *829:Y *832:B 12.59 
2 *829:Y *830:B 5.855 
*END

*D_NET *80 0.000855432
*CONN
*I *831:B1 I *D sky130_fd_sc_hd__o21a_2
*I *830:Y O *D sky130_fd_sc_hd__nor2_2
*CAP
1 *831:B1 0.000165754
2 *830:Y 0.000165754
3 *831:B1 *831:A1 0.000296094
4 *831:B1 *121:50 0.00011741
5 *831:B1 *121:83 4.76659e-05
6 *831:B1 *139:34 6.27529e-05
*RES
1 *830:Y *831:B1 12.105 
*END

*D_NET *81 0.00137833
*CONN
*I *833:C I *D sky130_fd_sc_hd__and3_2
*I *832:X O *D sky130_fd_sc_hd__xor2_2
*CAP
1 *833:C 0.00028383
2 *832:X 0.00028383
3 *833:C *832:A 0
4 *833:C *931:CLK 6.84196e-05
5 *833:C *110:20 0.000585705
6 *833:C *142:19 0
7 *931:D *833:C 0.000156547
*RES
1 *832:X *833:C 14.88 
*END

*D_NET *82 0.0117469
*CONN
*I *839:S I *D sky130_fd_sc_hd__mux2_1
*I *842:S I *D sky130_fd_sc_hd__mux2_1
*I *836:S I *D sky130_fd_sc_hd__mux2_1
*I *854:S I *D sky130_fd_sc_hd__mux2_1
*I *851:S I *D sky130_fd_sc_hd__mux2_1
*I *845:S I *D sky130_fd_sc_hd__mux2_1
*I *848:S I *D sky130_fd_sc_hd__mux2_1
*I *857:B1 I *D sky130_fd_sc_hd__a32o_2
*I *834:X O *D sky130_fd_sc_hd__o31a_2
*CAP
1 *839:S 7.61449e-05
2 *842:S 0.000405187
3 *836:S 0
4 *854:S 0
5 *851:S 9.99483e-05
6 *845:S 0.000265336
7 *848:S 0.000175198
8 *857:B1 0.000161635
9 *834:X 0
10 *82:106 0.00124916
11 *82:95 0.00122597
12 *82:39 0.00054325
13 *82:37 0.000522569
14 *82:29 0.000580585
15 *82:6 0.000840188
16 *82:4 0.00087601
17 *839:S *835:A0 4.41506e-05
18 *842:S *835:A1 0
19 *842:S *838:A1 0
20 *842:S *839:A0 0.000116853
21 *845:S *845:A1 3.95724e-05
22 *845:S *846:B 1.83756e-05
23 *845:S *148:133 4.82919e-05
24 *848:S *844:A0 0
25 *848:S *846:A 0.000130065
26 *848:S *848:A0 0.000320834
27 *848:S *848:A1 1.83847e-05
28 *848:S *935:CLK 0
29 *848:S *164:8 0
30 *851:S *851:A0 1.25129e-05
31 *851:S *851:A1 2.01737e-05
32 *857:B1 *853:A0 0.000178314
33 *857:B1 *856:A1 8.65961e-05
34 *857:B1 *858:B 4.18603e-06
35 *857:B1 *100:10 9.60047e-05
36 *857:B1 *100:23 3.66286e-05
37 *857:B1 *148:30 3.84487e-05
38 *82:6 *100:23 8.65961e-05
39 *82:6 *100:32 0.000531784
40 *82:6 *100:45 0.000104363
41 *82:29 *853:A0 0
42 *82:29 *854:A0 0
43 *82:29 *854:A1 0
44 *82:29 *960:A 5.05437e-05
45 *82:29 *104:10 6.55406e-05
46 *82:29 *104:16 0
47 *82:37 *847:S 0.000236303
48 *82:37 *850:A0 7.1624e-05
49 *82:37 *854:A1 0.000199229
50 *82:37 *960:A 4.16353e-05
51 *82:37 *104:16 0.000336948
52 *82:37 *104:18 0.000114649
53 *82:37 *148:108 0.000158845
54 *82:39 *846:A 2.42802e-05
55 *82:39 *847:S 0.000160174
56 *82:39 *848:A0 0.000106655
57 *82:39 *144:35 0
58 *82:39 *148:108 0.000299982
59 *82:95 *836:A1 8.64599e-05
60 *82:95 *878:B1 0.000139251
61 *82:95 *878:C1 0.000120186
62 *82:95 *879:B 2.42043e-05
63 *82:95 *880:A2 2.21074e-05
64 *82:95 *100:45 3.29947e-05
65 *82:95 *100:69 8.34281e-06
66 *82:95 *115:41 8.23457e-05
67 *82:95 *148:45 0.000136883
68 *82:106 *822:B 0
69 *82:106 *836:A0 0
70 *82:106 *836:A1 3.63576e-05
71 *82:106 *839:A0 3.09233e-05
72 *82:106 *879:A 0.000122821
73 *82:106 *879:B 3.02702e-05
74 *82:106 *161:12 1.1561e-05
75 *933:D *842:S 0
76 *934:D *82:106 0
77 *4:18 *857:B1 4.24479e-05
*RES
1 *834:X *82:4 1.6 
2 *82:4 *82:6 8.04 
3 *82:6 *857:B1 9.7625 
4 *82:6 *82:29 8.725 
5 *82:29 *82:37 11.51 
6 *82:37 *82:39 3.93 
7 *82:39 *848:S 8.49 
8 *82:39 *845:S 7.86 
9 *82:37 *851:S 5.565 
10 *82:29 *854:S 1.6 
11 *82:4 *82:95 13.24 
12 *82:95 *836:S 1.6 
13 *82:95 *82:106 15.08 
14 *82:106 *842:S 10.305 
15 *82:106 *839:S 4.74 
*END

*D_NET *83 0.00165713
*CONN
*I *836:A0 I *D sky130_fd_sc_hd__mux2_1
*I *835:X O *D sky130_fd_sc_hd__mux2_1
*CAP
1 *836:A0 0.000480509
2 *835:X 0.000480509
3 *836:A0 *835:S 6.97118e-05
4 *836:A0 *837:B 0
5 *836:A0 *148:47 9.84869e-05
6 *836:A0 *148:57 0.000135634
7 *836:A0 *162:10 8.5225e-05
8 *933:D *836:A0 0.000124007
9 *934:D *836:A0 0.00018305
10 *82:106 *836:A0 0
*RES
1 *835:X *836:A0 18.39 
*END

*D_NET *84 0.00143116
*CONN
*I *837:B I *D sky130_fd_sc_hd__or2_2
*I *836:X O *D sky130_fd_sc_hd__mux2_1
*CAP
1 *837:B 0.000383605
2 *836:X 0.000383605
3 *837:B *104:43 0
4 *837:B *148:47 0.00025528
5 *837:B *148:57 0.000399571
6 *837:B *148:61 9.09788e-06
7 *836:A0 *837:B 0
8 *932:D *837:B 0
*RES
1 *836:X *837:B 15.405 
*END

*D_NET *85 0.0011504
*CONN
*I *839:A0 I *D sky130_fd_sc_hd__mux2_1
*I *838:X O *D sky130_fd_sc_hd__mux2_1
*CAP
1 *839:A0 0.000351725
2 *838:X 0.000351725
3 *839:A0 *838:A1 0.000155103
4 *839:A0 *161:12 0.000139245
5 *842:S *839:A0 0.000116853
6 *933:D *839:A0 4.82319e-06
7 *82:106 *839:A0 3.09233e-05
*RES
1 *838:X *839:A0 12.735 
*END

*D_NET *86 0.000964654
*CONN
*I *840:B I *D sky130_fd_sc_hd__or2_2
*I *839:X O *D sky130_fd_sc_hd__mux2_1
*CAP
1 *840:B 0.000309386
2 *839:X 0.000309386
3 *840:B *835:A0 0.000239813
4 *840:B *835:S 0.00010607
*RES
1 *839:X *840:B 7.46 
*END

*D_NET *87 0.00103698
*CONN
*I *842:A0 I *D sky130_fd_sc_hd__mux2_1
*I *841:X O *D sky130_fd_sc_hd__mux2_1
*CAP
1 *842:A0 0.000220105
2 *841:X 0.000220105
3 *842:A0 *838:A0 8.65905e-05
4 *842:A0 *842:A1 0.000122315
5 *842:A0 *933:CLK 0.000308393
6 *842:A0 *162:10 2.92496e-05
7 *934:D *842:A0 5.02217e-05
*RES
1 *841:X *842:A0 12 
*END

*D_NET *88 0.000131336
*CONN
*I *843:B I *D sky130_fd_sc_hd__or2_2
*I *842:X O *D sky130_fd_sc_hd__mux2_1
*CAP
1 *843:B 5.54219e-05
2 *842:X 5.54219e-05
3 *934:D *843:B 2.04923e-05
*RES
1 *842:X *843:B 4.01 
*END

*D_NET *89 0.000977411
*CONN
*I *845:A0 I *D sky130_fd_sc_hd__mux2_1
*I *844:X O *D sky130_fd_sc_hd__mux2_1
*CAP
1 *845:A0 0.000382217
2 *844:X 0.000382217
3 *845:A0 *844:A0 0
4 *845:A0 *844:S 3.00381e-05
5 *845:A0 *845:A1 0
6 *845:A0 *846:A 0
7 *845:A0 *846:B 6.44134e-05
8 *845:A0 *935:CLK 0
9 *935:D *845:A0 0.000118527
*RES
1 *844:X *845:A0 13.62 
*END

*D_NET *90 0.000357722
*CONN
*I *846:B I *D sky130_fd_sc_hd__or2_2
*I *845:X O *D sky130_fd_sc_hd__mux2_1
*CAP
1 *846:B 0.000122842
2 *845:X 0.000122842
3 *846:B *846:A 0
4 *846:B *935:CLK 2.92496e-05
5 *845:A0 *846:B 6.44134e-05
6 *845:S *846:B 1.83756e-05
*RES
1 *845:X *846:B 9.54 
*END

*D_NET *91 0.00118173
*CONN
*I *848:A0 I *D sky130_fd_sc_hd__mux2_1
*I *847:X O *D sky130_fd_sc_hd__mux2_1
*CAP
1 *848:A0 0.00022542
2 *847:X 0.00022542
3 *848:A0 *847:A1 0.000124895
4 *848:A0 *849:B 0.000178504
5 *848:A0 *144:35 0
6 *848:S *848:A0 0.000320834
7 *82:39 *848:A0 0.000106655
*RES
1 *847:X *848:A0 13.29 
*END

*D_NET *92 0.000665954
*CONN
*I *849:B I *D sky130_fd_sc_hd__or2_2
*I *848:X O *D sky130_fd_sc_hd__mux2_1
*CAP
1 *849:B 0.000211514
2 *848:X 0.000211514
3 *849:B *144:35 0
4 *848:A0 *849:B 0.000178504
5 *936:D *849:B 6.4422e-05
*RES
1 *848:X *849:B 11.67 
*END

*D_NET *93 0.000750674
*CONN
*I *851:A0 I *D sky130_fd_sc_hd__mux2_1
*I *850:X O *D sky130_fd_sc_hd__mux2_1
*CAP
1 *851:A0 0.000288487
2 *850:X 0.000288487
3 *851:A0 *851:A1 0.00012398
4 *851:A0 *165:8 3.72081e-05
5 *851:S *851:A0 1.25129e-05
*RES
1 *850:X *851:A0 11.595 
*END

*D_NET *94 0.000602619
*CONN
*I *852:B I *D sky130_fd_sc_hd__or2_2
*I *851:X O *D sky130_fd_sc_hd__mux2_1
*CAP
1 *852:B 0.000255381
2 *851:X 0.000255381
3 *852:B *144:35 9.18556e-05
*RES
1 *851:X *852:B 10.5 
*END

*D_NET *95 0.000450222
*CONN
*I *854:A0 I *D sky130_fd_sc_hd__mux2_1
*I *853:X O *D sky130_fd_sc_hd__mux2_1
*CAP
1 *854:A0 0.000127771
2 *853:X 0.000127771
3 *854:A0 *853:A1 0.000122325
4 *854:A0 *104:16 7.23533e-05
5 *82:29 *854:A0 0
*RES
1 *853:X *854:A0 9.21 
*END

*D_NET *96 0.000629121
*CONN
*I *855:B I *D sky130_fd_sc_hd__or2_2
*I *854:X O *D sky130_fd_sc_hd__mux2_1
*CAP
1 *855:B 0.000284273
2 *854:X 0.000284273
3 *855:B *938:CLK 2.98587e-05
4 *855:B *960:A 3.07153e-05
5 *855:B *104:16 0
*RES
1 *854:X *855:B 10.92 
*END

*D_NET *97 0.00134299
*CONN
*I *858:A I *D sky130_fd_sc_hd__or2_2
*I *856:X O *D sky130_fd_sc_hd__a31o_2
*CAP
1 *858:A 0.00040078
2 *856:X 0.00040078
3 *858:A *856:A2 0.000107817
4 *858:A *857:A1 0
5 *858:A *857:A2 5.12772e-05
6 *858:A *857:A3 0.00020613
7 *858:A *121:16 7.70828e-05
8 *858:A *149:16 9.91257e-05
*RES
1 *856:X *858:A 14.085 
*END

*D_NET *98 0.000888884
*CONN
*I *858:B I *D sky130_fd_sc_hd__or2_2
*I *857:X O *D sky130_fd_sc_hd__a32o_2
*CAP
1 *858:B 0.000397453
2 *857:X 0.000397453
3 *858:B *939:CLK 7.80521e-05
4 *858:B *100:10 0
5 *858:B *167:12 0
6 *857:B1 *858:B 4.18603e-06
7 *939:D *858:B 1.17409e-05
*RES
1 *857:X *858:B 12.57 
*END

*D_NET *99 0.00246284
*CONN
*I *871:C I *D sky130_fd_sc_hd__or4b_2
*I *829:A I *D sky130_fd_sc_hd__nor4_2
*I *860:Y O *D sky130_fd_sc_hd__inv_2
*CAP
1 *871:C 0.000213671
2 *829:A 9.05065e-05
3 *860:Y 0.00019107
4 *99:10 0.000495247
5 *829:A *829:B 7.78283e-05
6 *829:A *115:33 8.73389e-06
7 *871:C *828:B 2.52462e-05
8 *871:C *871:A 9.37731e-05
9 *871:C *110:8 0
10 *871:C *140:46 1.1392e-05
11 *871:C *143:65 1.23244e-05
12 *99:10 *829:C 3.86918e-05
13 *99:10 *860:A 4.82919e-05
14 *99:10 *115:14 0.00040522
15 *99:10 *115:33 1.90762e-05
16 *829:D *99:10 4.82863e-05
17 *830:B *99:10 0.000100057
18 *832:B *871:C 0.000354222
19 *930:D *871:C 0.000229203
*RES
1 *860:Y *99:10 6.91 
2 *99:10 *829:A 3.1 
3 *99:10 *871:C 11.285 
*END

*D_NET *100 0.00686189
*CONN
*I *877:A I *D sky130_fd_sc_hd__nor2_2
*I *829:B I *D sky130_fd_sc_hd__nor4_2
*I *834:A1 I *D sky130_fd_sc_hd__o31a_2
*I *878:A1 I *D sky130_fd_sc_hd__o211a_2
*I *866:A I *D sky130_fd_sc_hd__nand2_2
*I *865:A I *D sky130_fd_sc_hd__and2_2
*I *856:A1 I *D sky130_fd_sc_hd__a31o_2
*I *861:Y O *D sky130_fd_sc_hd__inv_2
*CAP
1 *877:A 0
2 *829:B 0.000469731
3 *834:A1 0
4 *878:A1 0.000140239
5 *866:A 6.39058e-05
6 *865:A 0
7 *856:A1 0.000118623
8 *861:Y 0.000274653
9 *100:69 0.000594489
10 *100:47 0.000158809
11 *100:45 0.000220876
12 *100:32 0.000277751
13 *100:23 0.000156884
14 *100:10 0.000413865
15 *829:B *829:C 0
16 *829:B *878:B1 4.18603e-06
17 *829:B *105:25 1.73877e-05
18 *829:B *115:33 0.00064034
19 *829:B *115:41 9.50342e-06
20 *829:B *116:20 9.37731e-05
21 *856:A1 *856:A2 0.000159378
22 *856:A1 *856:A3 0.000103828
23 *856:A1 *148:8 1.85674e-05
24 *866:A *880:A1 0.000134503
25 *866:A *148:30 9.08126e-05
26 *878:A1 *880:A1 0
27 *878:A1 *148:45 0.000205149
28 *100:10 *857:A1 0.000355896
29 *100:23 *856:A2 4.82919e-05
30 *100:23 *149:16 7.66083e-05
31 *100:32 *148:30 1.52352e-05
32 *100:32 *149:16 0.000355879
33 *100:45 *148:30 0.00034689
34 *100:47 *879:B 9.53428e-06
35 *100:69 *879:B 8.82557e-05
36 *100:69 *109:25 4.66108e-05
37 *100:69 *116:20 4.82863e-05
38 *100:69 *148:30 1.14169e-05
39 *829:A *829:B 7.78283e-05
40 *857:B1 *856:A1 8.65961e-05
41 *857:B1 *100:10 9.60047e-05
42 *857:B1 *100:23 3.66286e-05
43 *858:B *100:10 0
44 *950:A *100:10 0
45 *4:18 *829:B 3.05972e-05
46 *82:6 *100:23 8.65961e-05
47 *82:6 *100:32 0.000531784
48 *82:6 *100:45 0.000104363
49 *82:95 *100:45 3.29947e-05
50 *82:95 *100:69 8.34281e-06
*RES
1 *861:Y *100:10 11.315 
2 *100:10 *856:A1 4.735 
3 *100:10 *100:23 1.14 
4 *100:23 *865:A 1.6 
5 *100:23 *100:32 5.55 
6 *100:32 *866:A 7.235 
7 *100:32 *100:45 3.21 
8 *100:45 *100:47 0.36 
9 *100:47 *878:A1 8.44625 
10 *100:47 *834:A1 1.6 
11 *100:45 *100:69 2.535 
12 *100:69 *829:B 15.425 
13 *100:69 *877:A 1.6 
*END

*D_NET *101 0.00111658
*CONN
*I *821:A1 I *D sky130_fd_sc_hd__o211a_2
*I *862:Y O *D sky130_fd_sc_hd__inv_2
*CAP
1 *821:A1 0.000309542
2 *862:Y 0.000309542
3 *821:A1 *862:A 4.47209e-05
4 *821:A1 *128:18 7.06865e-05
5 *821:A1 *128:36 0.000187766
6 *821:A1 *128:40 5.83121e-06
7 *821:A2 *821:A1 0.000125618
8 *927:D *821:A1 6.28687e-05
*RES
1 *862:Y *821:A1 13.9012 
*END

*D_NET *102 0.00146895
*CONN
*I *908:A1 I *D sky130_fd_sc_hd__o211a_2
*I *907:A I *D sky130_fd_sc_hd__nand2_2
*I *863:Y O *D sky130_fd_sc_hd__inv_2
*CAP
1 *908:A1 0.000200605
2 *907:A 0.000231603
3 *863:Y 6.8658e-05
4 *102:6 0.000500866
5 *907:A *920:CLK 0
6 *908:A1 *136:14 0
7 *908:A1 *136:20 1.20741e-05
8 *908:A1 *137:29 0
9 *908:B1 *908:A1 1.07797e-05
10 *920:D *908:A1 0.000118652
11 *59:8 *908:A1 1.12643e-05
12 *59:16 *908:A1 0.000314445
*RES
1 *863:Y *102:6 2.395 
2 *102:6 *907:A 8.72 
3 *102:6 *908:A1 11.4237 
*END

*D_NET *103 0.00113969
*CONN
*I *882:B1 I *D sky130_fd_sc_hd__o211a_2
*I *884:A I *D sky130_fd_sc_hd__nand2_2
*I *864:Y O *D sky130_fd_sc_hd__inv_2
*CAP
1 *882:B1 0.000251716
2 *884:A 0
3 *864:Y 6.32609e-05
4 *103:8 0.000314977
5 *882:B1 *880:A1 3.76596e-05
6 *882:B1 *882:A1 4.43871e-06
7 *882:B1 *884:B 4.81294e-06
8 *882:B1 *121:10 0.000138559
9 *103:8 *864:A 4.89295e-05
10 *103:8 *105:8 9.03844e-05
11 *103:8 *105:25 0.000122332
12 *4:18 *103:8 6.26165e-05
*RES
1 *864:Y *103:8 3.79 
2 *103:8 *884:A 1.6 
3 *103:8 *882:B1 9.89 
*END

*D_NET *104 0.0088925
*CONN
*I *853:S I *D sky130_fd_sc_hd__mux2_1
*I *850:S I *D sky130_fd_sc_hd__mux2_1
*I *883:B I *D sky130_fd_sc_hd__nor2_2
*I *835:S I *D sky130_fd_sc_hd__mux2_1
*I *838:S I *D sky130_fd_sc_hd__mux2_1
*I *841:S I *D sky130_fd_sc_hd__mux2_1
*I *844:S I *D sky130_fd_sc_hd__mux2_1
*I *847:S I *D sky130_fd_sc_hd__mux2_1
*I *865:X O *D sky130_fd_sc_hd__and2_2
*CAP
1 *853:S 0
2 *850:S 0
3 *883:B 0
4 *835:S 0.000259702
5 *838:S 7.96426e-05
6 *841:S 5.23141e-05
7 *844:S 0.000559578
8 *847:S 0.00025663
9 *865:X 4.1023e-05
10 *104:62 0.000131957
11 *104:45 0.000691967
12 *104:43 0.000757096
13 *104:37 0.000976086
14 *104:18 0.000922854
15 *104:16 0.000432872
16 *104:10 0.000418751
17 *835:S *835:A0 8.65961e-05
18 *835:S *840:A 4.77719e-05
19 *838:S *933:CLK 0.000187742
20 *841:S *933:CLK 0.000122797
21 *844:S *841:A1 0.000178919
22 *844:S *844:A0 1.34594e-05
23 *844:S *844:A1 0.000178106
24 *847:S *847:A0 8.40269e-05
25 *847:S *847:A1 2.16833e-05
26 *847:S *144:35 0
27 *104:10 *853:A0 6.55406e-05
28 *104:16 *853:A0 1.70935e-05
29 *104:16 *853:A1 7.35813e-05
30 *104:16 *854:A1 1.34361e-05
31 *104:37 *946:A 9.75049e-06
32 *104:37 *144:10 1.01276e-05
33 *104:37 *144:27 0.000302163
34 *104:37 *148:100 8.61067e-05
35 *104:43 *843:A 0
36 *104:43 *946:A 0.000131397
37 *104:43 *120:18 5.05774e-06
38 *104:43 *148:61 0
39 *104:43 *148:100 9.09788e-06
40 *104:45 *843:A 0
41 *836:A0 *835:S 6.97118e-05
42 *837:B *104:43 0
43 *840:B *835:S 0.00010607
44 *845:A0 *844:S 3.00381e-05
45 *854:A0 *104:16 7.23533e-05
46 *855:B *104:16 0
47 *932:D *104:43 9.85015e-05
48 *933:D *835:S 9.91651e-05
49 *954:A *844:S 0.000278117
50 *82:29 *104:10 6.55406e-05
51 *82:29 *104:16 0
52 *82:37 *847:S 0.000236303
53 *82:37 *104:16 0.000336948
54 *82:37 *104:18 0.000114649
55 *82:39 *847:S 0.000160174
*RES
1 *865:X *104:10 6.98 
2 *104:10 *104:16 9.965 
3 *104:16 *104:18 1.38 
4 *104:18 *847:S 9.435 
5 *104:18 *104:37 12.22 
6 *104:37 *104:43 6.87 
7 *104:43 *104:45 2.145 
8 *104:45 *844:S 15 
9 *104:45 *104:62 2 
10 *104:62 *841:S 2.74 
11 *104:62 *838:S 3.43 
12 *104:43 *835:S 9.24 
13 *104:37 *883:B 3.6 
14 *104:16 *850:S 3.6 
15 *104:10 *853:S 1.6 
*END

*D_NET *105 0.00182051
*CONN
*I *834:B1 I *D sky130_fd_sc_hd__o31a_2
*I *878:B1 I *D sky130_fd_sc_hd__o211a_2
*I *884:B I *D sky130_fd_sc_hd__nand2_2
*I *866:Y O *D sky130_fd_sc_hd__nand2_2
*CAP
1 *834:B1 0
2 *878:B1 7.82318e-05
3 *884:B 3.48658e-05
4 *866:Y 0.000136934
5 *105:25 0.000311298
6 *105:8 0.000404866
7 *878:B1 *878:A2 0.000159575
8 *878:B1 *879:B 0
9 *878:B1 *109:25 8.53113e-06
10 *878:B1 *115:41 0
11 *878:B1 *148:45 1.71207e-05
12 *884:B *864:A 0
13 *884:B *880:A1 0
14 *884:B *121:10 1.04651e-05
15 *105:25 *864:A 2.01504e-05
16 *105:25 *109:25 0.00010596
17 *105:25 *116:20 0.00012216
18 *829:B *878:B1 4.18603e-06
19 *829:B *105:25 1.73877e-05
20 *882:B1 *884:B 4.81294e-06
21 *4:18 *105:8 2.44225e-05
22 *4:18 *105:25 7.57517e-06
23 *82:95 *878:B1 0.000139251
24 *103:8 *105:8 9.03844e-05
25 *103:8 *105:25 0.000122332
*RES
1 *866:Y *105:8 3.445 
2 *105:8 *884:B 6.215 
3 *105:8 *105:25 5.9 
4 *105:25 *878:B1 6 
5 *105:25 *834:B1 3.6 
*END

*D_NET *106 0.00127261
*CONN
*I *902:C I *D sky130_fd_sc_hd__and4_2
*I *901:A2 I *D sky130_fd_sc_hd__a31o_2
*I *867:X O *D sky130_fd_sc_hd__and2_2
*CAP
1 *902:C 0
2 *901:A2 0.000217069
3 *867:X 0.000169348
4 *106:12 0.000386417
5 *901:A2 *876:B 0.00016163
6 *901:A2 *901:A1 0
7 *901:A2 *132:51 9.50342e-06
8 *106:12 *875:C 0
9 *106:12 *876:B 1.1561e-05
10 *106:12 *132:51 0.000145698
11 *901:A3 *901:A2 0.000171378
12 *51:50 *106:12 0
*RES
1 *867:X *106:12 6.645 
2 *106:12 *901:A2 8.7 
3 *106:12 *902:C 3.6 
*END

*D_NET *107 0.00149637
*CONN
*I *869:A I *D sky130_fd_sc_hd__inv_2
*I *868:Y O *D sky130_fd_sc_hd__nand2_2
*CAP
1 *869:A 0.000359541
2 *868:Y 0.000359541
3 *869:A *803:C 7.47215e-05
4 *869:A *868:A 0.000114703
5 *869:A *868:B 0.000393639
6 *869:A *903:B 4.26162e-05
7 *869:A *909:B1 2.05571e-05
8 *869:A *136:33 3.09233e-05
9 *869:A *138:38 1.8419e-05
10 *804:C *869:A 0
11 *921:D *869:A 5.53249e-06
12 *57:20 *869:A 6.65915e-05
13 *57:28 *869:A 9.58678e-06
*RES
1 *868:Y *869:A 18.13 
*END

*D_NET *108 0.00128548
*CONN
*I *909:A1 I *D sky130_fd_sc_hd__a21o_2
*I *806:C I *D sky130_fd_sc_hd__and4_2
*I *869:Y O *D sky130_fd_sc_hd__inv_2
*CAP
1 *909:A1 0.000115153
2 *806:C 7.79428e-05
3 *869:Y 0.000281848
4 *108:8 0.000474943
5 *806:C *138:14 0.000114492
6 *909:A1 *138:14 8.99646e-05
7 *108:8 *921:CLK 3.07153e-05
8 *108:8 *138:8 1.1392e-05
9 *108:8 *138:38 1.11041e-05
10 *806:D *806:C 1.26548e-05
11 *806:D *909:A1 3.60481e-05
12 *921:D *108:8 2.92279e-05
*RES
1 *869:Y *108:8 6.81 
2 *108:8 *806:C 5.235 
3 *108:8 *909:A1 5.745 
*END

*D_NET *109 0.00353279
*CONN
*I *834:A2 I *D sky130_fd_sc_hd__o31a_2
*I *879:B I *D sky130_fd_sc_hd__or2_2
*I *881:A I *D sky130_fd_sc_hd__nand2_2
*I *870:X O *D sky130_fd_sc_hd__and4bb_2
*CAP
1 *834:A2 0
2 *879:B 0.000556425
3 *881:A 4.43015e-05
4 *870:X 0.000280899
5 *109:25 0.000720884
6 *109:8 0.000489659
7 *879:B *878:C1 0
8 *879:B *115:41 0.000197264
9 *879:B *116:94 0.000201503
10 *879:B *116:100 0
11 *879:B *120:30 0
12 *881:A *116:33 4.55202e-05
13 *881:A *121:46 4.60061e-05
14 *109:8 *870:A_N 8.8266e-05
15 *109:8 *116:33 9.53428e-06
16 *109:8 *121:46 0.000236373
17 *109:25 *864:A 3.94692e-05
18 *109:25 *115:33 0
19 *109:25 *116:20 0.000211676
20 *109:25 *148:45 5.16418e-05
21 *878:B1 *879:B 0
22 *878:B1 *109:25 8.53113e-06
23 *82:95 *879:B 2.42043e-05
24 *82:106 *879:B 3.02702e-05
25 *100:47 *879:B 9.53428e-06
26 *100:69 *879:B 8.82557e-05
27 *100:69 *109:25 4.66108e-05
28 *105:25 *109:25 0.00010596
*RES
1 *870:X *109:8 7.93 
2 *109:8 *881:A 2.755 
3 *109:8 *109:25 8.38 
4 *109:25 *879:B 16.43 
5 *109:25 *834:A2 1.6 
*END

*D_NET *110 0.00626509
*CONN
*I *825:A2 I *D sky130_fd_sc_hd__a31o_2
*I *824:A I *D sky130_fd_sc_hd__nand2_2
*I *857:A2 I *D sky130_fd_sc_hd__a32o_2
*I *871:X O *D sky130_fd_sc_hd__or4b_2
*CAP
1 *825:A2 0.000300467
2 *824:A 0
3 *857:A2 0.000171038
4 *871:X 0.000112428
5 *110:20 0.0011354
6 *110:8 0.00137725
7 *825:A2 *822:B 3.05295e-05
8 *825:A2 *870:C 0.000313757
9 *825:A2 *870:D 3.86529e-05
10 *825:A2 *116:100 0.000163019
11 *825:A2 *116:132 0.000335865
12 *825:A2 *120:30 0
13 *825:A2 *140:33 9.79389e-05
14 *825:A2 *140:46 1.61461e-05
15 *825:A2 *142:19 1.07797e-05
16 *857:A2 *857:A1 0.000355889
17 *857:A2 *121:16 0.000122885
18 *857:A2 *149:6 0.000122337
19 *110:8 *140:46 1.1392e-05
20 *110:8 *142:8 7.40446e-05
21 *110:20 *882:A1 1.12643e-05
22 *110:20 *882:A2 0.00017187
23 *110:20 *882:C1 0.000153487
24 *110:20 *931:CLK 1.52352e-05
25 *110:20 *142:8 8.65905e-05
26 *110:20 *149:6 0.00015482
27 *827:C *825:A2 9.50342e-06
28 *833:C *110:20 0.000585705
29 *858:A *857:A2 5.12772e-05
30 *871:C *110:8 0
31 *911:D *110:20 0.000235514
*RES
1 *871:X *110:8 3.445 
2 *110:8 *110:20 16.74 
3 *110:20 *857:A2 10.925 
4 *110:20 *824:A 1.6 
5 *110:8 *825:A2 14.57 
*END

*D_NET *111 0.000548073
*CONN
*I *876:A I *D sky130_fd_sc_hd__or4b_2
*I *872:X O *D sky130_fd_sc_hd__or4_2
*CAP
1 *876:A 0.000189083
2 *872:X 0.000189083
3 *876:A *872:A 4.65698e-05
4 *876:A *876:C 3.90266e-05
5 *876:A *876:D_N 3.09233e-05
6 *876:A *115:14 5.33874e-05
*RES
1 *872:X *876:A 10.32 
*END

*D_NET *112 0.00503561
*CONN
*I *876:B I *D sky130_fd_sc_hd__or4b_2
*I *873:X O *D sky130_fd_sc_hd__or4b_2
*CAP
1 *876:B 0.00148485
2 *873:X 0.00148485
3 *876:B *873:A 4.99619e-05
4 *876:B *873:D_N 2.30292e-05
5 *876:B *876:D_N 9.2741e-05
6 *876:B *887:A 0.000188069
7 *876:B *887:B 4.60584e-05
8 *876:B *899:A1 4.99619e-05
9 *876:B *899:B1 2.30292e-05
10 *876:B *899:C1 4.82863e-05
11 *876:B *901:A1 0
12 *876:B *921:CLK 2.36716e-05
13 *876:B *115:14 4.99961e-05
14 *876:B *134:33 9.27255e-06
15 *876:B *147:10 0.000160658
16 *876:B *147:12 0.00013994
17 *876:B *147:16 0.000342942
18 *900:B1_N *876:B 5.73739e-05
19 *901:A2 *876:B 0.00016163
20 *901:A3 *876:B 0
21 *902:D *876:B 0.000238137
22 *903:C *876:B 0.000127501
23 *918:D *876:B 0.000139933
24 *47:12 *876:B 9.80032e-06
25 *57:14 *876:B 7.23602e-05
26 *106:12 *876:B 1.1561e-05
*RES
1 *873:X *876:B 35.925 
*END

*D_NET *113 0.00341501
*CONN
*I *876:C I *D sky130_fd_sc_hd__or4b_2
*I *874:X O *D sky130_fd_sc_hd__or4_2
*CAP
1 *876:C 0.000873399
2 *874:X 0.000873399
3 *876:C *808:A2 9.23635e-05
4 *876:C *819:A2 9.78798e-05
5 *876:C *821:C1 7.23533e-05
6 *876:C *872:A 0.000427282
7 *876:C *872:D 0
8 *876:C *876:D_N 1.71013e-05
9 *876:C *115:14 0
10 *876:C *120:55 0.000261923
11 *876:C *120:57 0.000195932
12 *876:C *125:48 0.000293382
13 *876:C *125:50 3.67779e-05
14 *876:C *125:92 4.4022e-05
15 *876:C *145:89 1.76054e-05
16 *809:B1_N *876:C 7.25617e-05
17 *876:A *876:C 3.90266e-05
18 *62:12 *876:C 0
*RES
1 *874:X *876:C 29.235 
*END

*D_NET *114 0.00197334
*CONN
*I *876:D_N I *D sky130_fd_sc_hd__or4b_2
*I *875:X O *D sky130_fd_sc_hd__and4_2
*CAP
1 *876:D_N 0.00051962
2 *875:X 0.00051962
3 *876:D_N *872:D 0
4 *876:D_N *901:A1 0.000360604
5 *876:D_N *902:A 0.000320827
6 *876:D_N *921:CLK 0.000111901
7 *876:D_N *115:14 0
8 *876:D_N *135:21 0
9 *876:A *876:D_N 3.09233e-05
10 *876:B *876:D_N 9.2741e-05
11 *876:C *876:D_N 1.71013e-05
12 *903:C *876:D_N 0
*RES
1 *875:X *876:D_N 19.185 
*END

*D_NET *115 0.00495614
*CONN
*I *877:B I *D sky130_fd_sc_hd__nor2_2
*I *834:A3 I *D sky130_fd_sc_hd__o31a_2
*I *878:A2 I *D sky130_fd_sc_hd__o211a_2
*I *829:C I *D sky130_fd_sc_hd__nor4_2
*I *876:X O *D sky130_fd_sc_hd__or4b_2
*CAP
1 *877:B 0
2 *834:A3 0
3 *878:A2 4.91598e-05
4 *829:C 2.75407e-05
5 *876:X 0.000644308
6 *115:41 0.000194733
7 *115:33 0.000718248
8 *115:14 0.00124452
9 *878:A2 *148:45 0.000157915
10 *115:14 *921:CLK 4.82919e-05
11 *829:A *115:33 8.73389e-06
12 *829:B *829:C 0
13 *829:B *115:33 0.00064034
14 *829:B *115:41 9.50342e-06
15 *876:A *115:14 5.33874e-05
16 *876:B *115:14 4.99961e-05
17 *876:C *115:14 0
18 *876:D_N *115:14 0
19 *878:B1 *878:A2 0.000159575
20 *878:B1 *115:41 0
21 *879:B *115:41 0.000197264
22 *4:18 *115:33 0.000207288
23 *82:95 *115:41 8.23457e-05
24 *99:10 *829:C 3.86918e-05
25 *99:10 *115:14 0.00040522
26 *99:10 *115:33 1.90762e-05
27 *109:25 *115:33 0
*RES
1 *876:X *115:14 16.145 
2 *115:14 *829:C 2.215 
3 *115:14 *115:33 12.575 
4 *115:33 *115:41 4.895 
5 *115:41 *878:A2 7.49 
6 *115:41 *834:A3 1.6 
7 *115:33 *877:B 3.6 
*END

*D_NET *116 0.0133614
*CONN
*I *826:C I *D sky130_fd_sc_hd__and3_2
*I *887:A I *D sky130_fd_sc_hd__nor2_2
*I *899:C1 I *D sky130_fd_sc_hd__a211o_2
*I *822:B I *D sky130_fd_sc_hd__xnor2_2
*I *825:A3 I *D sky130_fd_sc_hd__a31o_2
*I *880:A1 I *D sky130_fd_sc_hd__a211o_2
*I *889:B1 I *D sky130_fd_sc_hd__a311o_2
*I *824:B I *D sky130_fd_sc_hd__nand2_2
*I *857:A3 I *D sky130_fd_sc_hd__a32o_2
*I *881:B I *D sky130_fd_sc_hd__nand2_2
*I *877:Y O *D sky130_fd_sc_hd__nor2_2
*CAP
1 *826:C 0.000251784
2 *887:A 3.19444e-05
3 *899:C1 9.73191e-06
4 *822:B 0.000540291
5 *825:A3 0
6 *880:A1 0.000694947
7 *889:B1 0.000465948
8 *824:B 0
9 *857:A3 0.000131673
10 *881:B 0
11 *877:Y 0.000550005
12 *116:132 0.000997503
13 *116:100 0.000383565
14 *116:94 0.00133077
15 *116:50 0.000558917
16 *116:37 0.000431371
17 *116:33 0.00109006
18 *116:20 0.000458502
19 *822:B *825:A1 5.83121e-06
20 *822:B *870:C 5.12017e-06
21 *822:B *120:30 0
22 *822:B *139:10 2.69443e-06
23 *822:B *139:21 0.000121476
24 *822:B *140:33 3.09164e-05
25 *826:C *826:B 9.78012e-05
26 *826:C *121:50 0.000185411
27 *857:A3 *148:30 0.000124007
28 *857:A3 *149:10 0
29 *880:A1 *880:A2 3.7837e-05
30 *880:A1 *880:B1 0
31 *880:A1 *910:CLK 0.000116853
32 *880:A1 *121:10 0.000162318
33 *880:A1 *148:45 0
34 *887:A *887:B 0.000114024
35 *887:A *899:B1 8.49205e-05
36 *889:B1 *889:A1 9.53428e-06
37 *889:B1 *889:A2 5.4155e-06
38 *889:B1 *889:C1 0.000192721
39 *889:B1 *121:16 0.000193757
40 *889:B1 *130:22 9.2741e-05
41 *899:C1 *899:B1 4.82863e-05
42 *116:20 *864:A 3.09164e-05
43 *116:33 *119:14 4.25578e-05
44 *116:33 *121:16 1.19928e-05
45 *116:33 *121:46 9.88291e-05
46 *116:37 *121:16 0.000181249
47 *116:50 *121:16 8.15676e-05
48 *116:50 *149:10 0
49 *116:94 *121:46 5.07419e-05
50 *116:100 *120:30 5.14424e-05
51 *116:132 *828:A 0.00011852
52 *116:132 *831:A1 0.000119214
53 *116:132 *870:A_N 0.000107703
54 *116:132 *899:A1 2.97004e-06
55 *116:132 *930:CLK 5.01735e-05
56 *116:132 *121:46 0.000101364
57 *116:132 *121:94 0.000523658
58 *116:132 *143:65 0
59 *823:B *826:C 2.22026e-05
60 *825:A2 *822:B 3.05295e-05
61 *825:A2 *116:100 0.000163019
62 *825:A2 *116:132 0.000335865
63 *827:C *822:B 2.25161e-05
64 *829:B *116:20 9.37731e-05
65 *829:D *116:132 2.23407e-05
66 *858:A *857:A3 0.00020613
67 *866:A *880:A1 0.000134503
68 *876:B *887:A 0.000188069
69 *876:B *899:C1 4.82863e-05
70 *878:A1 *880:A1 0
71 *879:B *116:94 0.000201503
72 *879:B *116:100 0
73 *881:A *116:33 4.55202e-05
74 *882:B1 *880:A1 3.76596e-05
75 *884:B *880:A1 0
76 *910:D *880:A1 6.63873e-05
77 *930:D *116:132 2.92279e-05
78 *939:D *116:37 4.82919e-05
79 *4:18 *857:A3 7.71104e-05
80 *4:18 *116:20 6.52087e-05
81 *4:18 *116:132 0
82 *82:106 *822:B 0
83 *100:69 *116:20 4.82863e-05
84 *105:25 *116:20 0.00012216
85 *109:8 *116:33 9.53428e-06
86 *109:25 *116:20 0.000211676
*RES
1 *877:Y *116:20 15.315 
2 *116:20 *881:B 1.6 
3 *116:20 *116:33 4.035 
4 *116:33 *116:37 6.245 
5 *116:37 *857:A3 7.14 
6 *116:37 *116:50 1.89 
7 *116:50 *824:B 3.6 
8 *116:50 *889:B1 13.455 
9 *116:33 *880:A1 17.75 
10 *877:Y *116:94 8.19 
11 *116:94 *116:100 4.34 
12 *116:100 *825:A3 1.6 
13 *116:100 *822:B 11.375 
14 *116:94 *116:132 25.335 
15 *116:132 *899:C1 2.05 
16 *116:132 *887:A 3.43 
17 *822:B *826:C 11.88 
*END

*D_NET *117 0.00069268
*CONN
*I *880:B1 I *D sky130_fd_sc_hd__a211o_2
*I *878:X O *D sky130_fd_sc_hd__o211a_2
*CAP
1 *880:B1 0.000270953
2 *878:X 0.000270953
3 *880:B1 *910:CLK 0
4 *880:B1 *148:45 0.000147174
5 *880:B1 *148:47 3.60024e-06
6 *880:A1 *880:B1 0
*RES
1 *878:X *880:B1 12.135 
*END

*D_NET *118 0.000963689
*CONN
*I *880:A2 I *D sky130_fd_sc_hd__a211o_2
*I *879:X O *D sky130_fd_sc_hd__or2_2
*CAP
1 *880:A2 0.000329369
2 *879:X 0.000329369
3 *880:A2 *836:A1 0.000122817
4 *880:A2 *879:A 3.69049e-05
5 *880:A2 *880:C1 8.52845e-05
6 *880:A1 *880:A2 3.7837e-05
7 *82:95 *880:A2 2.21074e-05
*RES
1 *879:X *880:A2 8.495 
*END

*D_NET *119 0.000585964
*CONN
*I *833:A I *D sky130_fd_sc_hd__and3_2
*I *882:C1 I *D sky130_fd_sc_hd__o211a_2
*I *881:Y O *D sky130_fd_sc_hd__nand2_2
*CAP
1 *833:A 0
2 *882:C1 6.1048e-05
3 *881:Y 0.000133911
4 *119:14 0.000194959
5 *110:20 *882:C1 0.000153487
6 *116:33 *119:14 4.25578e-05
*RES
1 *881:Y *119:14 7.535 
2 *119:14 *882:C1 3.1 
3 *119:14 *833:A 1.6 
*END

*D_NET *120 0.0223698
*CONN
*I *893:B I *D sky130_fd_sc_hd__and3b_2
*I *894:B1 I *D sky130_fd_sc_hd__o21ai_2
*I *885:B1 I *D sky130_fd_sc_hd__o21ai_2
*I *833:B I *D sky130_fd_sc_hd__and3_2
*I *807:B I *D sky130_fd_sc_hd__and3b_2
*I *804:B I *D sky130_fd_sc_hd__and3b_2
*I *903:B I *D sky130_fd_sc_hd__and3b_2
*I *818:A I *D sky130_fd_sc_hd__and3_2
*I *812:B I *D sky130_fd_sc_hd__and3b_2
*I *821:C1 I *D sky130_fd_sc_hd__o211a_2
*I *827:B I *D sky130_fd_sc_hd__and3b_2
*I *883:Y O *D sky130_fd_sc_hd__nor2_2
*CAP
1 *893:B 0.00026443
2 *894:B1 0.000122569
3 *885:B1 0.000519981
4 *833:B 0
5 *807:B 6.80628e-05
6 *804:B 0
7 *903:B 0.000578723
8 *818:A 2.89988e-05
9 *812:B 0.000496276
10 *821:C1 0.000389254
11 *827:B 0
12 *883:Y 0.00168357
13 *120:163 0.000539924
14 *120:150 0.000992827
15 *120:141 0.00113213
16 *120:102 0.000927397
17 *120:96 0.000627414
18 *120:57 0.000948315
19 *120:55 0.000672842
20 *120:43 0.00165016
21 *120:30 0.002068
22 *120:18 0.00370536
23 *812:B *874:C 0.000158072
24 *821:C1 *819:A2 3.99039e-05
25 *821:C1 *820:A 0
26 *893:B *873:C 6.09409e-05
27 *893:B *873:D_N 0.000103187
28 *894:B1 *873:A 0.000362483
29 *894:B1 *873:B 0.000143266
30 *903:B *803:B 5.39961e-05
31 *903:B *803:C 1.15688e-05
32 *903:B *872:B 0.000124895
33 *903:B *872:D 3.56353e-05
34 *120:18 *148:100 3.78941e-05
35 *120:18 *148:108 4.77757e-05
36 *120:43 *826:A 1.68183e-05
37 *120:43 *826:B 4.66108e-05
38 *120:55 *922:CLK 1.84465e-05
39 *120:55 *923:CLK 3.1191e-05
40 *120:55 *145:61 8.77615e-05
41 *120:55 *145:89 0.000141878
42 *120:55 *145:91 1.55955e-05
43 *120:57 *927:CLK 1.1561e-05
44 *120:57 *145:61 8.34426e-05
45 *120:102 *806:A 0
46 *120:141 *931:CLK 4.13879e-05
47 *120:150 *931:CLK 0.000152814
48 *120:150 *146:8 0
49 *120:150 *146:12 0
50 *120:150 *146:97 0
51 *120:163 *873:A 1.08194e-05
52 *120:163 *146:97 0
53 *804:C *120:102 0
54 *812:A_N *812:B 2.96426e-05
55 *812:C *812:B 8.24842e-05
56 *814:A2 *812:B 9.66106e-05
57 *816:A3 *120:55 4.90291e-05
58 *818:B *120:55 0.000111252
59 *819:A3 *821:C1 0.000116158
60 *819:A3 *120:57 3.09233e-05
61 *822:B *120:30 0
62 *825:A2 *120:30 0
63 *827:C *120:30 5.97504e-05
64 *869:A *903:B 4.26162e-05
65 *876:C *821:C1 7.23533e-05
66 *876:C *120:55 0.000261923
67 *876:C *120:57 0.000195932
68 *879:B *120:30 0
69 *893:A_N *893:B 8.12896e-06
70 *893:A_N *894:B1 1.17309e-05
71 *893:A_N *120:163 6.26955e-05
72 *895:B1 *894:B1 0.00012657
73 *903:A_N *903:B 0.000241777
74 *903:C *903:B 3.64998e-06
75 *914:D *893:B 4.66108e-05
76 *921:D *903:B 0
77 *921:D *120:102 4.43871e-06
78 *923:D *120:55 8.9257e-05
79 *929:D *120:30 8.49205e-05
80 *929:D *120:43 0.000161529
81 *51:29 *894:B1 0.000217529
82 *57:28 *903:B 2.05641e-05
83 *62:8 *903:B 0.000251595
84 *62:8 *120:102 0
85 *62:12 *120:55 9.76188e-05
86 *62:12 *120:102 0
87 *64:10 *120:102 0.000256456
88 *64:12 *120:102 5.74095e-05
89 *64:43 *812:B 8.18626e-05
90 *68:32 *818:A 4.66108e-05
91 *77:8 *120:43 3.95409e-05
92 *104:43 *120:18 5.05774e-06
93 *116:100 *120:30 5.14424e-05
*RES
1 *883:Y *120:18 8.40223 
2 *120:18 *120:30 12.3602 
3 *120:30 *827:B 1.6 
4 *120:30 *120:43 12.315 
5 *120:43 *120:55 17.985 
6 *120:55 *120:57 2.4 
7 *120:57 *821:C1 10.23 
8 *120:57 *812:B 14.2 
9 *120:55 *818:A 4.05 
10 *120:43 *120:96 2.175 
11 *120:96 *120:102 11.5 
12 *120:102 *903:B 16.655 
13 *120:102 *804:B 1.6 
14 *120:96 *807:B 2.395 
15 *120:18 *120:141 2.7985 
16 *120:141 *833:B 3.6 
17 *120:141 *120:150 5.715 
18 *120:150 *885:B1 10.95 
19 *120:150 *120:163 2.7225 
20 *120:163 *894:B1 8.8275 
21 *120:163 *893:B 7.275 
*END

*D_NET *121 0.013681
*CONN
*I *887:B I *D sky130_fd_sc_hd__nor2_2
*I *899:B1 I *D sky130_fd_sc_hd__a211o_2
*I *830:A I *D sky130_fd_sc_hd__nor2_2
*I *808:B1 I *D sky130_fd_sc_hd__a31o_2
*I *814:B1 I *D sky130_fd_sc_hd__a31o_2
*I *823:A I *D sky130_fd_sc_hd__nor2_2
*I *889:C1 I *D sky130_fd_sc_hd__a311o_2
*I *859:B1 I *D sky130_fd_sc_hd__a21o_2
*I *884:Y O *D sky130_fd_sc_hd__nand2_2
*CAP
1 *887:B 5.30675e-05
2 *899:B1 5.41782e-05
3 *830:A 0
4 *808:B1 0.00016297
5 *814:B1 0.000159952
6 *823:A 0.000100482
7 *889:C1 0.000196226
8 *859:B1 9.76653e-05
9 *884:Y 5.02946e-05
10 *121:94 0.000693152
11 *121:83 0.000633563
12 *121:63 0.00073414
13 *121:50 0.000920541
14 *121:46 0.00173298
15 *121:16 0.000950563
16 *121:10 0.00198345
17 *808:B1 *872:A 1.21329e-05
18 *808:B1 *125:48 6.29387e-05
19 *808:B1 *125:92 5.75512e-05
20 *808:B1 *125:101 3.1191e-05
21 *814:B1 *125:48 0.000222321
22 *859:B1 *859:A1 2.75229e-05
23 *887:B *134:33 8.96017e-05
24 *889:C1 *885:A2 0
25 *889:C1 *886:B1 0
26 *889:C1 *130:18 0
27 *889:C1 *150:52 0
28 *899:B1 *134:33 9.66021e-05
29 *121:16 *857:A1 5.12017e-06
30 *121:16 *150:52 0
31 *121:46 *870:A_N 2.75145e-05
32 *121:46 *870:C 0.000160635
33 *121:50 *826:B 4.39001e-05
34 *121:50 *831:A1 9.29751e-06
35 *121:50 *860:A 0.000153279
36 *121:50 *143:11 0
37 *121:83 *831:A1 1.73877e-05
38 *121:83 *860:A 7.89767e-05
39 *121:94 *831:A1 4.41381e-05
40 *121:94 *860:A 5.53249e-06
41 *121:94 *899:A1 0
42 *811:D *808:B1 6.90254e-05
43 *820:D *814:B1 1.22676e-05
44 *823:B *121:50 0.00028447
45 *826:C *121:50 0.000185411
46 *831:A2 *121:50 0
47 *831:B1 *121:50 0.00011741
48 *831:B1 *121:83 4.76659e-05
49 *857:A2 *121:16 0.000122885
50 *858:A *121:16 7.70828e-05
51 *859:A2 *121:16 0.000316112
52 *876:B *887:B 4.60584e-05
53 *876:B *899:B1 2.30292e-05
54 *880:A1 *121:10 0.000162318
55 *881:A *121:46 4.60061e-05
56 *882:B1 *121:10 0.000138559
57 *884:B *121:10 1.04651e-05
58 *887:A *887:B 0.000114024
59 *887:A *899:B1 8.49205e-05
60 *889:B1 *889:C1 0.000192721
61 *889:B1 *121:16 0.000193757
62 *899:C1 *899:B1 4.82863e-05
63 *901:A3 *121:94 0
64 *928:D *823:A 6.72833e-06
65 *928:D *121:63 2.0187e-05
66 *929:D *121:50 0.000107203
67 *939:D *121:16 1.74678e-05
68 *4:18 *121:46 0.000113111
69 *47:12 *887:B 4.99619e-05
70 *68:8 *814:B1 0.000119227
71 *109:8 *121:46 0.000236373
72 *116:33 *121:16 1.19928e-05
73 *116:33 *121:46 9.88291e-05
74 *116:37 *121:16 0.000181249
75 *116:50 *121:16 8.15676e-05
76 *116:94 *121:46 5.07419e-05
77 *116:132 *121:46 0.000101364
78 *116:132 *121:94 0.000523658
*RES
1 *884:Y *121:10 7.49 
2 *121:10 *121:16 14.015 
3 *121:16 *859:B1 5.085 
4 *121:16 *889:C1 7.785 
5 *121:10 *121:46 24.21 
6 *121:46 *121:50 12.56 
7 *121:50 *823:A 3.1 
8 *121:50 *121:63 7.97 
9 *121:63 *814:B1 8.295 
10 *121:63 *808:B1 7.275 
11 *121:46 *121:83 1.635 
12 *121:83 *830:A 3.6 
13 *121:83 *121:94 14.6 
14 *121:94 *899:B1 3.445 
15 *121:94 *887:B 3.79 
*END

*D_NET *122 0.00181051
*CONN
*I *886:B1 I *D sky130_fd_sc_hd__a21oi_2
*I *885:Y O *D sky130_fd_sc_hd__o21ai_2
*CAP
1 *886:B1 0.000405995
2 *885:Y 0.000405995
3 *886:B1 *885:A1 8.65961e-05
4 *886:B1 *885:A2 0.000208376
5 *886:B1 *886:A2 0.000286584
6 *886:B1 *123:12 0.000223033
7 *886:B1 *146:33 0
8 *886:B1 *150:52 3.09164e-05
9 *886:B1 *150:65 0.000163019
10 *886:B1 *150:73 0
11 *889:C1 *886:B1 0
12 *912:D *886:B1 0
*RES
1 *885:Y *886:B1 17.205 
*END

*D_NET *123 0.00662083
*CONN
*I *892:D I *D sky130_fd_sc_hd__and4_2
*I *873:D_N I *D sky130_fd_sc_hd__or4b_2
*I *891:A3 I *D sky130_fd_sc_hd__a31o_2
*I *886:A2 I *D sky130_fd_sc_hd__a21oi_2
*I *889:A3 I *D sky130_fd_sc_hd__a311o_2
*I *888:A2 I *D sky130_fd_sc_hd__a21oi_2
*I *885:A2 I *D sky130_fd_sc_hd__o21ai_2
*I *912:Q O *D sky130_fd_sc_hd__dfxtp_2
*CAP
1 *892:D 0.000286015
2 *873:D_N 0.000212946
3 *891:A3 0
4 *886:A2 0.000332295
5 *889:A3 0
6 *888:A2 0.000101355
7 *885:A2 0.000150707
8 *912:Q 2.08101e-05
9 *123:75 0.00107475
10 *123:60 0.000711442
11 *123:25 0.000101355
12 *123:12 0.00025817
13 *123:10 0.000550494
14 *123:6 0.000267205
15 *873:D_N *873:A 0.000123225
16 *885:A2 *885:A1 4.99619e-05
17 *886:A2 *886:A1 8.65905e-05
18 *886:A2 *130:12 0
19 *888:A2 *888:B1 0.00016063
20 *888:A2 *889:A1 8.23457e-05
21 *888:A2 *150:69 0.000234066
22 *892:D *892:B 4.76682e-05
23 *892:D *915:CLK 0.000121019
24 *123:60 *130:12 0.000316415
25 *123:75 *891:A2 1.91597e-05
26 *123:75 *130:18 1.83975e-05
27 *876:B *873:D_N 2.30292e-05
28 *886:B1 *885:A2 0.000208376
29 *886:B1 *886:A2 0.000286584
30 *886:B1 *123:12 0.000223033
31 *889:C1 *885:A2 0
32 *890:A *888:A2 2.96426e-05
33 *890:B *888:A2 0.000113344
34 *893:A_N *873:D_N 0.000215345
35 *893:B *873:D_N 0.000103187
36 *893:C *873:D_N 0
37 *893:C *123:60 2.50602e-05
38 *893:C *123:75 1.77686e-05
39 *895:A2 *892:D 2.95708e-05
40 *895:B1 *892:D 0
41 *914:D *873:D_N 0
42 *51:8 *892:D 1.88656e-05
*RES
1 *912:Q *123:6 1.96 
2 *123:6 *123:10 3.485 
3 *123:10 *123:12 2.655 
4 *123:12 *885:A2 6.63 
5 *123:12 *123:25 2 
6 *123:25 *888:A2 5.62 
7 *123:25 *889:A3 1.6 
8 *123:10 *886:A2 10.005 
9 *123:6 *123:60 3.57 
10 *123:60 *891:A3 1.6 
11 *123:60 *123:75 3.9197 
12 *123:75 *873:D_N 8.9075 
13 *123:75 *892:D 6.1303 
*END

*D_NET *124 0.00502319
*CONN
*I *872:B I *D sky130_fd_sc_hd__or4_2
*I *806:A I *D sky130_fd_sc_hd__and4_2
*I *805:A I *D sky130_fd_sc_hd__or2_2
*I *808:A2 I *D sky130_fd_sc_hd__a31o_2
*I *811:C I *D sky130_fd_sc_hd__and4_2
*I *922:Q O *D sky130_fd_sc_hd__dfxtp_2
*CAP
1 *872:B 0.000316151
2 *806:A 0.000798203
3 *805:A 0
4 *808:A2 2.94916e-05
5 *811:C 4.57569e-05
6 *922:Q 0.000223559
7 *124:36 0.000562535
8 *124:14 0.000577793
9 *124:6 0.000806585
10 *808:A2 *872:A 9.12494e-06
11 *808:A2 *125:92 2.98644e-05
12 *808:A2 *125:101 7.1624e-05
13 *811:C *929:CLK 8.46818e-05
14 *872:B *806:B 8.40269e-05
15 *872:B *872:C 0.000496006
16 *124:14 *922:CLK 1.42674e-05
17 *124:14 *929:CLK 0.000182883
18 *124:14 *125:38 6.33849e-05
19 *124:14 *125:46 3.24882e-05
20 *807:C *806:A 0.000119277
21 *809:A2 *124:14 0.000159179
22 *876:C *808:A2 9.23635e-05
23 *903:B *872:B 0.000124895
24 *922:D *806:A 0
25 *922:D *124:14 1.43717e-05
26 *923:D *124:14 8.46818e-05
27 *120:102 *806:A 0
*RES
1 *922:Q *124:6 4.12 
2 *124:6 *124:14 9.12 
3 *124:14 *811:C 2.395 
4 *124:14 *808:A2 6.725 
5 *124:6 *124:36 3.125 
6 *124:36 *805:A 3.6 
7 *124:36 *806:A 12.315 
8 *806:A *872:B 9.53 
*END

*D_NET *125 0.00825596
*CONN
*I *809:A1 I *D sky130_fd_sc_hd__o21ba_2
*I *872:A I *D sky130_fd_sc_hd__or4_2
*I *808:A1 I *D sky130_fd_sc_hd__a31o_2
*I *811:B I *D sky130_fd_sc_hd__and4_2
*I *814:A1 I *D sky130_fd_sc_hd__a31o_2
*I *820:B I *D sky130_fd_sc_hd__nand4_2
*I *810:A1 I *D sky130_fd_sc_hd__a21o_2
*I *819:A2 I *D sky130_fd_sc_hd__a41o_2
*I *816:A1 I *D sky130_fd_sc_hd__a31o_2
*I *817:B I *D sky130_fd_sc_hd__nand4_2
*I *923:Q O *D sky130_fd_sc_hd__dfxtp_2
*CAP
1 *809:A1 0
2 *872:A 0.000488773
3 *808:A1 0
4 *811:B 0
5 *814:A1 0.00010946
6 *820:B 0.000218708
7 *810:A1 5.74818e-05
8 *819:A2 0.000409524
9 *816:A1 3.38889e-05
10 *817:B 0.000128926
11 *923:Q 0.000222616
12 *125:101 0.000519563
13 *125:92 7.46512e-05
14 *125:65 0.00027619
15 *125:50 0.000454871
16 *125:48 0.000351324
17 *125:46 0.000490231
18 *125:38 0.000287728
19 *125:12 0.000332712
20 *125:10 0.000430388
21 *817:B *816:B1 0.000196884
22 *817:B *128:36 8.53113e-06
23 *819:A2 *819:A1 0.000198945
24 *819:A2 *874:A 2.84447e-05
25 *819:A2 *126:21 0
26 *819:A2 *129:8 0
27 *820:B *926:CLK 1.56428e-05
28 *125:38 *922:CLK 0.000184661
29 *125:46 *811:A 8.41384e-05
30 *125:46 *922:CLK 0.000121036
31 *125:46 *929:CLK 6.56289e-05
32 *805:B *125:10 0.000196084
33 *808:A2 *872:A 9.12494e-06
34 *808:A2 *125:92 2.98644e-05
35 *808:A2 *125:101 7.1624e-05
36 *808:B1 *872:A 1.21329e-05
37 *808:B1 *125:48 6.29387e-05
38 *808:B1 *125:92 5.75512e-05
39 *808:B1 *125:101 3.1191e-05
40 *809:A2 *125:38 8.52972e-05
41 *809:A2 *125:46 8.53011e-05
42 *812:C *819:A2 0
43 *814:A2 *819:A2 0
44 *814:B1 *125:48 0.000222321
45 *820:C *820:B 5.4155e-06
46 *820:D *810:A1 8.65905e-05
47 *820:D *819:A2 0
48 *820:D *820:B 3.74161e-05
49 *820:D *125:48 0
50 *820:D *125:50 0
51 *821:C1 *819:A2 3.99039e-05
52 *876:A *872:A 4.65698e-05
53 *876:C *819:A2 9.78798e-05
54 *876:C *872:A 0.000427282
55 *876:C *125:48 0.000293382
56 *876:C *125:50 3.67779e-05
57 *876:C *125:92 4.4022e-05
58 *64:12 *125:10 3.97568e-05
59 *64:14 *817:B 5.96623e-06
60 *64:14 *125:10 6.54361e-06
61 *64:14 *125:12 9.97977e-05
62 *64:16 *817:B 9.2575e-05
63 *64:26 *817:B 2.97004e-06
64 *64:26 *820:B 6.07575e-06
65 *64:43 *820:B 4.01778e-05
66 *68:32 *814:A1 9.66021e-05
67 *124:14 *125:38 6.33849e-05
68 *124:14 *125:46 3.24882e-05
*RES
1 *923:Q *125:10 7.065 
2 *125:10 *125:12 3.2925 
3 *125:12 *817:B 7.0875 
4 *125:12 *816:A1 4.2825 
5 *125:10 *125:38 3.83 
6 *125:38 *125:46 6.275 
7 *125:46 *125:48 6.225 
8 *125:48 *125:50 0.87 
9 *125:50 *819:A2 9.555 
10 *125:50 *125:65 2 
11 *125:65 *810:A1 2.395 
12 *125:65 *820:B 4.39 
13 *125:48 *814:A1 5.085 
14 *125:46 *125:92 1.38 
15 *125:92 *811:B 3.6 
16 *125:92 *125:101 0.87 
17 *125:101 *808:A1 3.6 
18 *125:101 *872:A 14.205 
19 *125:38 *809:A1 1.6 
*END

*D_NET *126 0.00301909
*CONN
*I *811:A I *D sky130_fd_sc_hd__and4_2
*I *813:B I *D sky130_fd_sc_hd__and2_2
*I *810:B1 I *D sky130_fd_sc_hd__a21o_2
*I *874:D I *D sky130_fd_sc_hd__or4_2
*I *924:Q O *D sky130_fd_sc_hd__dfxtp_2
*CAP
1 *811:A 0.0002416
2 *813:B 0
3 *810:B1 5.26509e-05
4 *874:D 6.59719e-05
5 *924:Q 0.000120682
6 *126:32 0.000406074
7 *126:21 0.000294443
8 *126:10 0.000263971
9 *811:A *929:CLK 0.000195986
10 *874:D *874:C 9.2741e-05
11 *126:21 *874:C 4.94404e-05
12 *126:21 *127:21 4.58406e-05
13 *126:32 *813:A 0.000197789
14 *126:32 *127:21 8.87475e-05
15 *812:A_N *126:21 0
16 *812:C *874:D 2.49909e-05
17 *812:C *126:10 5.23362e-05
18 *812:C *126:21 0.000136884
19 *814:A2 *810:B1 8.65961e-05
20 *814:A2 *126:21 3.09164e-05
21 *814:A2 *126:32 0.000118527
22 *819:A2 *126:21 0
23 *820:D *810:B1 4.99619e-05
24 *820:D *126:32 2.68721e-05
25 *924:D *126:10 0
26 *67:10 *811:A 0.000122821
27 *68:8 *126:32 0.000169106
28 *125:46 *811:A 8.41384e-05
*RES
1 *924:Q *126:10 5.43 
2 *126:10 *874:D 5.085 
3 *126:10 *126:21 2.4 
4 *126:21 *810:B1 4.74 
5 *126:21 *126:32 5.97 
6 *126:32 *813:B 3.6 
7 *126:32 *811:A 8.7 
*END

*D_NET *127 0.00173663
*CONN
*I *813:A I *D sky130_fd_sc_hd__and2_2
*I *815:A1 I *D sky130_fd_sc_hd__o21ba_2
*I *874:C I *D sky130_fd_sc_hd__or4_2
*I *925:Q O *D sky130_fd_sc_hd__dfxtp_2
*CAP
1 *813:A 0.000116996
2 *815:A1 0
3 *874:C 0.000155953
4 *925:Q 0
5 *127:21 0.000176615
6 *127:6 0.000215572
7 *874:C *819:A1 3.26889e-05
8 *812:A_N *874:C 5.83244e-05
9 *812:A_N *127:21 0.000129056
10 *812:B *874:C 0.000158072
11 *812:C *874:C 2.10034e-05
12 *874:D *874:C 9.2741e-05
13 *67:10 *813:A 0.000192257
14 *67:10 *127:21 5.53249e-06
15 *126:21 *874:C 4.94404e-05
16 *126:21 *127:21 4.58406e-05
17 *126:32 *813:A 0.000197789
18 *126:32 *127:21 8.87475e-05
*RES
1 *925:Q *127:6 3.6 
2 *127:6 *874:C 7.605 
3 *127:6 *127:21 2.655 
4 *127:21 *815:A1 3.6 
5 *127:21 *813:A 7.785 
*END

*D_NET *128 0.0040946
*CONN
*I *816:B1 I *D sky130_fd_sc_hd__a31o_2
*I *862:A I *D sky130_fd_sc_hd__inv_2
*I *817:A I *D sky130_fd_sc_hd__nand4_2
*I *874:B I *D sky130_fd_sc_hd__or4_2
*I *819:A1 I *D sky130_fd_sc_hd__a41o_2
*I *926:Q O *D sky130_fd_sc_hd__dfxtp_2
*CAP
1 *816:B1 0.000150595
2 *862:A 5.59565e-05
3 *817:A 0
4 *874:B 1.77753e-05
5 *819:A1 9.48196e-05
6 *926:Q 0.000363148
7 *128:40 8.93481e-05
8 *128:36 0.000283269
9 *128:18 0.000581664
10 *128:8 0.0009315
11 *819:A1 *874:A 0.000198945
12 *128:18 *874:A 8.57406e-05
13 *128:18 *927:CLK 0.000347029
14 *128:18 *129:8 7.55945e-06
15 *817:B *816:B1 0.000196884
16 *817:B *128:36 8.53113e-06
17 *819:A2 *819:A1 0.000198945
18 *819:A3 *128:18 2.55587e-05
19 *821:A1 *862:A 4.47209e-05
20 *821:A1 *128:18 7.06865e-05
21 *821:A1 *128:36 0.000187766
22 *821:A1 *128:40 5.83121e-06
23 *821:A2 *128:18 7.06865e-05
24 *874:C *819:A1 3.26889e-05
25 *926:D *128:36 4.49498e-05
26 *64:26 *128:36 0
*RES
1 *926:Q *128:8 7.5 
2 *128:8 *128:18 9.305 
3 *128:18 *819:A1 4.645 
4 *128:18 *874:B 1.96 
5 *128:8 *128:36 2.655 
6 *128:36 *128:40 2.45 
7 *128:40 *817:A 1.6 
8 *128:40 *862:A 2.74 
9 *128:36 *816:B1 6.795 
*END

*D_NET *129 0.0025144
*CONN
*I *819:B1 I *D sky130_fd_sc_hd__a41o_2
*I *820:A I *D sky130_fd_sc_hd__nand4_2
*I *874:A I *D sky130_fd_sc_hd__or4_2
*I *927:Q O *D sky130_fd_sc_hd__dfxtp_2
*CAP
1 *819:B1 0
2 *820:A 0.000157288
3 *874:A 0.000119148
4 *927:Q 0.000591092
5 *129:21 0.000167693
6 *129:8 0.000720645
7 *874:A *927:CLK 3.22035e-05
8 *129:8 *927:CLK 2.26018e-05
9 *819:A1 *874:A 0.000198945
10 *819:A2 *874:A 2.84447e-05
11 *819:A2 *129:8 0
12 *819:A3 *874:A 0.00012657
13 *819:A4 *820:A 9.82856e-06
14 *819:A4 *874:A 3.4687e-05
15 *821:A2 *820:A 0
16 *821:B1 *129:8 8.65905e-05
17 *821:C1 *820:A 0
18 *927:D *129:8 8.84163e-05
19 *64:26 *820:A 3.69428e-05
20 *128:18 *874:A 8.57406e-05
21 *128:18 *129:8 7.55945e-06
*RES
1 *927:Q *129:8 8.62 
2 *129:8 *874:A 5.62 
3 *129:8 *129:21 0.36 
4 *129:21 *820:A 8 
5 *129:21 *819:B1 1.6 
*END

*D_NET *130 0.00420142
*CONN
*I *891:A2 I *D sky130_fd_sc_hd__a31o_2
*I *892:C I *D sky130_fd_sc_hd__and4_2
*I *873:C I *D sky130_fd_sc_hd__or4b_2
*I *889:A2 I *D sky130_fd_sc_hd__a311o_2
*I *888:B1 I *D sky130_fd_sc_hd__a21oi_2
*I *913:Q O *D sky130_fd_sc_hd__dfxtp_2
*CAP
1 *891:A2 3.64475e-05
2 *892:C 0.000312442
3 *873:C 0.000228946
4 *889:A2 1.88809e-05
5 *888:B1 6.88189e-05
6 *913:Q 0.000246327
7 *130:22 0.000353515
8 *130:18 0.000725237
9 *130:14 0.000542918
10 *130:12 0.000282775
11 *888:B1 *889:A1 1.47347e-05
12 *892:C *891:A1 3.45117e-05
13 *892:C *892:A 0.000224276
14 *892:C *892:B 4.85763e-05
15 *892:C *915:CLK 0.000101436
16 *892:C *150:92 8.41307e-05
17 *130:18 *891:A1 4.1652e-06
18 *130:22 *889:A1 1.61831e-05
19 *886:A2 *130:12 0
20 *888:A2 *888:B1 0.00016063
21 *889:B1 *889:A2 5.4155e-06
22 *889:B1 *130:22 9.2741e-05
23 *889:C1 *130:18 0
24 *890:B *888:B1 5.30673e-05
25 *893:A_N *873:C 4.89295e-05
26 *893:B *873:C 6.09409e-05
27 *893:C *873:C 1.43717e-05
28 *914:D *873:C 6.70275e-05
29 *123:60 *130:12 0.000316415
30 *123:75 *891:A2 1.91597e-05
31 *123:75 *130:18 1.83975e-05
*RES
1 *913:Q *130:12 9.335 
2 *130:12 *130:14 2 
3 *130:14 *130:18 4.91 
4 *130:18 *130:22 4.605 
5 *130:22 *888:B1 3.43 
6 *130:22 *889:A2 1.96 
7 *130:18 *873:C 5.845 
8 *130:14 *892:C 8.835 
9 *130:12 *891:A2 2.05 
*END

*D_NET *131 0.00220414
*CONN
*I *873:B I *D sky130_fd_sc_hd__or4b_2
*I *892:B I *D sky130_fd_sc_hd__and4_2
*I *891:B1 I *D sky130_fd_sc_hd__a31o_2
*I *914:Q O *D sky130_fd_sc_hd__dfxtp_2
*CAP
1 *873:B 6.2661e-05
2 *892:B 0.000135915
3 *891:B1 0.000323114
4 *914:Q 0.000126699
5 *131:8 0.000528515
6 *131:6 0.000258846
7 *892:B *915:CLK 1.48873e-05
8 *892:C *892:B 4.85763e-05
9 *892:D *892:B 4.76682e-05
10 *893:A_N *873:B 0.000160064
11 *893:C *891:B1 1.18521e-05
12 *894:B1 *873:B 0.000143266
13 *914:D *891:B1 7.70553e-06
14 *51:8 *873:B 2.82887e-05
15 *51:8 *892:B 6.88421e-05
16 *51:29 *131:6 0.000190633
17 *51:29 *131:8 4.66108e-05
*RES
1 *914:Q *131:6 3.43 
2 *131:6 *131:8 0.795 
3 *131:8 *891:B1 5.17 
4 *131:8 *892:B 7.61 
5 *131:6 *873:B 7.745 
*END

*D_NET *132 0.00718568
*CONN
*I *873:A I *D sky130_fd_sc_hd__or4b_2
*I *896:B I *D sky130_fd_sc_hd__and3_2
*I *901:A1 I *D sky130_fd_sc_hd__a31o_2
*I *902:B I *D sky130_fd_sc_hd__and4_2
*I *897:A1 I *D sky130_fd_sc_hd__a21o_2
*I *895:A1 I *D sky130_fd_sc_hd__a21oi_2
*I *894:A1 I *D sky130_fd_sc_hd__o21ai_2
*I *915:Q O *D sky130_fd_sc_hd__dfxtp_2
*CAP
1 *873:A 0.00028149
2 *896:B 0.000253461
3 *901:A1 0.000292578
4 *902:B 0
5 *897:A1 0
6 *895:A1 0.000323556
7 *894:A1 0.000412336
8 *915:Q 4.43379e-05
9 *132:51 0.000386627
10 *132:47 0.000893712
11 *132:32 0.00114368
12 *132:21 0.00110645
13 *132:8 0.000360591
14 *896:B *867:B 5.60307e-05
15 *896:B *134:8 8.40213e-05
16 *901:A1 *875:C 2.96426e-05
17 *901:A1 *902:A 4.82863e-05
18 *132:32 *897:B1 5.30673e-05
19 *132:47 *867:A 0
20 *132:47 *875:D 6.14689e-05
21 *132:47 *897:B1 3.96653e-05
22 *132:47 *920:CLK 0
23 *132:47 *133:30 0
24 *132:51 *875:D 5.93658e-05
25 *132:51 *902:A 0
26 *132:51 *147:61 0
27 *873:D_N *873:A 0.000123225
28 *876:B *873:A 4.99619e-05
29 *876:B *901:A1 0
30 *876:D_N *901:A1 0.000360604
31 *894:B1 *873:A 0.000362483
32 *895:B1 *873:A 2.30292e-05
33 *895:B1 *894:A1 0
34 *895:B1 *132:21 0
35 *898:B *132:32 4.10576e-05
36 *900:B1_N *894:A1 0
37 *900:B1_N *132:21 0
38 *901:A2 *901:A1 0
39 *901:A2 *132:51 9.50342e-06
40 *903:C *901:A1 0
41 *906:A *896:B 7.81829e-05
42 *915:D *895:A1 3.45679e-05
43 *51:29 *873:A 1.61831e-05
44 *51:50 *132:47 0
45 *106:12 *132:51 0.000145698
46 *120:163 *873:A 1.08194e-05
*RES
1 *915:Q *132:8 4.05 
2 *132:8 *894:A1 5.235 
3 *132:8 *132:21 5.165 
4 *132:21 *895:A1 6.205 
5 *132:21 *132:32 8.73 
6 *132:32 *897:A1 1.6 
7 *132:32 *132:47 10.715 
8 *132:47 *132:51 4.4 
9 *132:51 *902:B 1.6 
10 *132:51 *901:A1 10.925 
11 *132:47 *896:B 7.62 
12 *894:A1 *873:A 13.695 
*END

*D_NET *133 0.00280229
*CONN
*I *897:B1 I *D sky130_fd_sc_hd__a21o_2
*I *896:A I *D sky130_fd_sc_hd__and3_2
*I *867:B I *D sky130_fd_sc_hd__and2_2
*I *875:D I *D sky130_fd_sc_hd__and4_2
*I *916:Q O *D sky130_fd_sc_hd__dfxtp_2
*CAP
1 *897:B1 0.00015771
2 *896:A 0
3 *867:B 3.70151e-05
4 *875:D 0.000177546
5 *916:Q 0.000544672
6 *133:30 0.0001226
7 *133:26 0.000610421
8 *867:B *134:8 5.83121e-06
9 *867:B *147:78 2.30292e-05
10 *875:D *875:C 0.000123225
11 *875:D *902:A 8.65905e-05
12 *875:D *920:CLK 2.37321e-05
13 *875:D *147:61 7.97066e-05
14 *875:D *147:72 1.52945e-05
15 *896:B *867:B 5.60307e-05
16 *897:A2 *897:B1 0.000109016
17 *897:A2 *133:30 0.000203755
18 *906:A *867:B 8.8266e-05
19 *906:A *133:26 4.11678e-06
20 *906:A *133:30 9.30717e-05
21 *51:39 *867:B 1.85674e-05
22 *51:50 *133:30 8.53113e-06
23 *132:32 *897:B1 5.30673e-05
24 *132:47 *875:D 6.14689e-05
25 *132:47 *897:B1 3.96653e-05
26 *132:47 *133:30 0
27 *132:51 *875:D 5.93658e-05
*RES
1 *916:Q *875:D 12.015 
2 *916:Q *133:26 7.5 
3 *133:26 *133:30 4.4 
4 *133:30 *867:B 3.1 
5 *133:30 *896:A 1.6 
6 *133:26 *897:B1 6.825 
*END

*D_NET *134 0.00376136
*CONN
*I *867:A I *D sky130_fd_sc_hd__and2_2
*I *900:A1 I *D sky130_fd_sc_hd__o21ba_2
*I *899:A1 I *D sky130_fd_sc_hd__a211o_2
*I *875:C I *D sky130_fd_sc_hd__and4_2
*I *917:Q O *D sky130_fd_sc_hd__dfxtp_2
*CAP
1 *867:A 2.90281e-05
2 *900:A1 0.000232847
3 *899:A1 5.63064e-05
4 *875:C 0.000312364
5 *917:Q 0.000116613
6 *134:33 0.000633639
7 *134:12 0.000740382
8 *134:8 0.000229174
9 *875:C *902:A 2.30292e-05
10 *900:A1 *916:CLK 0
11 *134:8 *147:78 6.07575e-06
12 *867:B *134:8 5.83121e-06
13 *875:D *875:C 0.000123225
14 *876:B *899:A1 4.99619e-05
15 *876:B *134:33 9.27255e-06
16 *887:B *134:33 8.96017e-05
17 *896:B *134:8 8.40213e-05
18 *899:A2 *899:A1 4.58406e-05
19 *899:A2 *900:A1 7.07801e-05
20 *899:B1 *134:33 9.66021e-05
21 *900:A2 *900:A1 4.99619e-05
22 *900:B1_N *900:A1 0
23 *901:A1 *875:C 2.96426e-05
24 *902:D *875:C 0.000203178
25 *902:D *134:33 2.59926e-05
26 *908:C1 *875:C 1.92979e-05
27 *47:12 *899:A1 0
28 *47:12 *900:A1 0
29 *47:12 *134:33 8.49205e-05
30 *51:39 *134:8 0.000200615
31 *51:48 *134:8 1.34503e-05
32 *51:50 *867:A 1.75703e-05
33 *51:50 *875:C 1.71207e-05
34 *51:50 *134:12 8.10457e-05
35 *53:25 *900:A1 6.10014e-05
36 *106:12 *875:C 0
37 *116:132 *899:A1 2.97004e-06
38 *121:94 *899:A1 0
39 *132:47 *867:A 0
*RES
1 *917:Q *134:8 6.12 
2 *134:8 *134:12 1.4475 
3 *134:12 *875:C 9.6375 
4 *134:12 *134:33 8.59 
5 *134:33 *899:A1 4.92 
6 *134:33 *900:A1 7.815 
7 *134:8 *867:A 4.515 
*END

*D_NET *135 0.00242824
*CONN
*I *901:B1 I *D sky130_fd_sc_hd__a31o_2
*I *902:A I *D sky130_fd_sc_hd__and4_2
*I *872:D I *D sky130_fd_sc_hd__or4_2
*I *918:Q O *D sky130_fd_sc_hd__dfxtp_2
*CAP
1 *901:B1 0
2 *902:A 0.000184233
3 *872:D 0.000371101
4 *918:Q 0
5 *135:21 0.000440221
6 *135:6 0.000627089
7 *872:D *803:B 0
8 *902:A *147:61 0.000116158
9 *135:21 *803:B 0
10 *875:C *902:A 2.30292e-05
11 *875:D *902:A 8.65905e-05
12 *876:C *872:D 0
13 *876:D_N *872:D 0
14 *876:D_N *902:A 0.000320827
15 *876:D_N *135:21 0
16 *901:A1 *902:A 4.82863e-05
17 *903:B *872:D 3.56353e-05
18 *62:8 *872:D 0.000169542
19 *62:12 *872:D 5.53249e-06
20 *132:51 *902:A 0
*RES
1 *918:Q *135:6 3.6 
2 *135:6 *872:D 10.59 
3 *135:6 *135:21 5.9 
4 *135:21 *902:A 10.67 
5 *135:21 *901:B1 1.6 
*END

*D_NET *136 0.0046797
*CONN
*I *905:A I *D sky130_fd_sc_hd__nand2_2
*I *904:A I *D sky130_fd_sc_hd__or2_2
*I *868:B I *D sky130_fd_sc_hd__nand2_2
*I *803:C I *D sky130_fd_sc_hd__and4_2
*I *875:B I *D sky130_fd_sc_hd__and4_2
*I *919:Q O *D sky130_fd_sc_hd__dfxtp_2
*CAP
1 *905:A 0
2 *904:A 2.32169e-05
3 *868:B 0.000260641
4 *803:C 2.14801e-05
5 *875:B 0.000251627
6 *919:Q 0.00032782
7 *136:33 0.000420685
8 *136:31 0.000212678
9 *136:20 0.000409958
10 *136:14 0.000435253
11 *803:C *803:B 5.4003e-05
12 *868:B *803:A 1.56428e-05
13 *868:B *803:B 2.49909e-05
14 *868:B *868:A 8.65334e-05
15 *875:B *875:A 0.000237243
16 *875:B *137:29 2.19562e-06
17 *136:14 *137:29 8.90621e-05
18 *136:20 *137:29 3.21361e-05
19 *136:31 *803:B 0.000104287
20 *136:33 *803:B 0.000516687
21 *869:A *803:C 7.47215e-05
22 *869:A *868:B 0.000393639
23 *869:A *136:33 3.09233e-05
24 *903:B *803:C 1.15688e-05
25 *905:B *136:14 2.30292e-05
26 *905:B *136:20 0.000183311
27 *905:B *136:31 3.90266e-05
28 *908:A1 *136:14 0
29 *908:A1 *136:20 1.20741e-05
30 *920:D *136:14 3.59997e-05
31 *57:14 *904:A 2.75229e-05
32 *57:20 *136:31 2.97004e-06
33 *57:20 *136:33 0.000203876
34 *59:8 *136:20 0.000114896
*RES
1 *919:Q *136:14 10.205 
2 *136:14 *136:20 3.24 
3 *136:20 *875:B 4.81 
4 *136:20 *136:31 3.38 
5 *136:31 *136:33 5.97 
6 *136:33 *803:C 4.47 
7 *136:33 *868:B 9.15 
8 *136:31 *904:A 4.05 
9 *136:14 *905:A 1.6 
*END

*D_NET *137 0.00504737
*CONN
*I *868:A I *D sky130_fd_sc_hd__nand2_2
*I *803:B I *D sky130_fd_sc_hd__and4_2
*I *875:A I *D sky130_fd_sc_hd__and4_2
*I *863:A I *D sky130_fd_sc_hd__inv_2
*I *920:Q O *D sky130_fd_sc_hd__dfxtp_2
*CAP
1 *868:A 0.00031055
2 *803:B 0.000698149
3 *875:A 8.6301e-05
4 *863:A 0.00010242
5 *920:Q 0.000211593
6 *137:29 0.00113904
7 *137:12 0.000979156
8 *868:A *803:A 4.66108e-05
9 *803:C *803:B 5.4003e-05
10 *868:B *803:B 2.49909e-05
11 *868:B *868:A 8.65334e-05
12 *869:A *868:A 0.000114703
13 *872:D *803:B 0
14 *875:B *875:A 0.000237243
15 *875:B *137:29 2.19562e-06
16 *903:A_N *803:B 1.16578e-05
17 *903:B *803:B 5.39961e-05
18 *905:B *137:29 1.17118e-05
19 *908:A1 *137:29 0
20 *920:D *137:29 0
21 *59:8 *137:29 0.000134338
22 *135:21 *803:B 0
23 *136:14 *137:29 8.90621e-05
24 *136:20 *137:29 3.21361e-05
25 *136:31 *803:B 0.000104287
26 *136:33 *803:B 0.000516687
*RES
1 *920:Q *137:12 9.41 
2 *137:12 *863:A 3.085 
3 *137:12 *137:29 14.395 
4 *137:29 *875:A 3.775 
5 *137:29 *803:B 14.405 
6 *803:B *868:A 8.03 
*END

*D_NET *138 0.0032726
*CONN
*I *909:B1 I *D sky130_fd_sc_hd__a21o_2
*I *803:A I *D sky130_fd_sc_hd__and4_2
*I *806:B I *D sky130_fd_sc_hd__and4_2
*I *872:C I *D sky130_fd_sc_hd__or4_2
*I *921:Q O *D sky130_fd_sc_hd__dfxtp_2
*CAP
1 *909:B1 0.000129754
2 *803:A 1.83028e-05
3 *806:B 5.28681e-05
4 *872:C 0.000168261
5 *921:Q 0.000252084
6 *138:38 0.000346639
7 *138:14 0.00027773
8 *138:8 0.000507267
9 *138:38 *921:CLK 0
10 *804:C *872:C 8.45071e-05
11 *804:C *909:B1 3.64558e-05
12 *804:C *138:38 8.86692e-05
13 *806:C *138:14 0.000114492
14 *806:D *872:C 2.75229e-05
15 *806:D *138:14 0.000206123
16 *868:A *803:A 4.66108e-05
17 *868:B *803:A 1.56428e-05
18 *869:A *909:B1 2.05571e-05
19 *869:A *138:38 1.8419e-05
20 *872:B *806:B 8.40269e-05
21 *872:B *872:C 0.000496006
22 *909:A1 *138:14 8.99646e-05
23 *921:D *138:38 2.33494e-05
24 *57:20 *909:B1 5.65256e-05
25 *57:20 *138:38 3.79595e-05
26 *64:10 *872:C 5.03646e-05
27 *108:8 *138:8 1.1392e-05
28 *108:8 *138:38 1.11041e-05
*RES
1 *921:Q *138:8 5.17 
2 *138:8 *138:14 6.4 
3 *138:14 *872:C 6.535 
4 *138:14 *806:B 2.755 
5 *138:8 *138:38 4.97 
6 *138:38 *803:A 4.05 
7 *138:38 *909:B1 5.97 
*END

*D_NET *139 0.00552105
*CONN
*I *870:C I *D sky130_fd_sc_hd__and4bb_2
*I *860:A I *D sky130_fd_sc_hd__inv_2
*I *826:B I *D sky130_fd_sc_hd__and3_2
*I *825:A1 I *D sky130_fd_sc_hd__a31o_2
*I *822:A I *D sky130_fd_sc_hd__xnor2_2
*I *928:Q O *D sky130_fd_sc_hd__dfxtp_2
*CAP
1 *870:C 0.000294843
2 *860:A 0.000224106
3 *826:B 0.000138866
4 *825:A1 9.0412e-05
5 *822:A 3.76639e-05
6 *928:Q 0.000323295
7 *139:34 0.000703376
8 *139:23 0.000430816
9 *139:21 0.000397661
10 *139:10 0.000463777
11 *825:A1 *140:27 3.66286e-05
12 *825:A1 *140:33 4.99619e-05
13 *870:C *140:27 2.92496e-05
14 *870:C *140:33 0.000325604
15 *870:C *143:11 3.56184e-05
16 *139:10 *140:10 0.000114518
17 *139:10 *143:11 9.97885e-05
18 *139:10 *143:29 3.14077e-05
19 *139:21 *140:10 0.000208142
20 *139:21 *140:27 0.000106648
21 *139:34 *140:27 4.66108e-05
22 *822:B *825:A1 5.83121e-06
23 *822:B *870:C 5.12017e-06
24 *822:B *139:10 2.69443e-06
25 *822:B *139:21 0.000121476
26 *825:A2 *870:C 0.000313757
27 *826:C *826:B 9.78012e-05
28 *831:B1 *139:34 6.27529e-05
29 *930:D *870:C 0.000185398
30 *99:10 *860:A 4.82919e-05
31 *120:43 *826:B 4.66108e-05
32 *121:46 *870:C 0.000160635
33 *121:50 *826:B 4.39001e-05
34 *121:50 *860:A 0.000153279
35 *121:83 *860:A 7.89767e-05
36 *121:94 *860:A 5.53249e-06
*RES
1 *928:Q *139:10 9.855 
2 *139:10 *822:A 4.05 
3 *139:10 *139:21 3.675 
4 *139:21 *139:23 2 
5 *139:23 *825:A1 2.74 
6 *139:23 *139:34 5.9 
7 *139:34 *826:B 6.195 
8 *139:34 *860:A 8.745 
9 *139:21 *870:C 16.18 
*END

*D_NET *140 0.00438559
*CONN
*I *825:B1 I *D sky130_fd_sc_hd__a31o_2
*I *828:B I *D sky130_fd_sc_hd__nand2_2
*I *871:B I *D sky130_fd_sc_hd__or4b_2
*I *870:B_N I *D sky130_fd_sc_hd__and4bb_2
*I *826:A I *D sky130_fd_sc_hd__and3_2
*I *929:Q O *D sky130_fd_sc_hd__dfxtp_2
*CAP
1 *825:B1 0
2 *828:B 0.0002231
3 *871:B 0
4 *870:B_N 0
5 *826:A 9.65362e-05
6 *929:Q 0.000141056
7 *140:46 0.000386981
8 *140:33 0.000392789
9 *140:27 0.000322366
10 *140:10 0.00033105
11 *140:10 *143:11 0.00016875
12 *140:27 *143:11 7.17811e-05
13 *140:46 *832:A 7.87426e-05
14 *140:46 *870:D 7.23533e-05
15 *140:46 *142:19 5.16418e-05
16 *822:B *140:33 3.09164e-05
17 *825:A1 *140:27 3.66286e-05
18 *825:A1 *140:33 4.99619e-05
19 *825:A2 *140:33 9.79389e-05
20 *825:A2 *140:46 1.61461e-05
21 *827:C *826:A 4.61542e-05
22 *829:D *828:B 0.000122337
23 *831:A2 *826:A 8.8266e-05
24 *832:B *140:33 0.000244511
25 *832:B *140:46 0.000231564
26 *870:C *140:27 2.92496e-05
27 *870:C *140:33 0.000325604
28 *871:C *828:B 2.52462e-05
29 *871:C *140:46 1.1392e-05
30 *929:D *826:A 0.000136284
31 *930:D *140:33 1.95461e-05
32 *77:8 *826:A 3.25635e-05
33 *110:8 *140:46 1.1392e-05
34 *120:43 *826:A 1.68183e-05
35 *139:10 *140:10 0.000114518
36 *139:21 *140:10 0.000208142
37 *139:21 *140:27 0.000106648
38 *139:34 *140:27 4.66108e-05
*RES
1 *929:Q *140:10 7.725 
2 *140:10 *826:A 6.48 
3 *140:10 *140:27 4.43 
4 *140:27 *140:33 9.185 
5 *140:33 *870:B_N 3.6 
6 *140:33 *140:46 5.795 
7 *140:46 *871:B 1.6 
8 *140:46 *828:B 5.2 
9 *140:27 *825:B1 1.6 
*END

*D_NET *141 0.00396429
*CONN
*I *828:A I *D sky130_fd_sc_hd__nand2_2
*I *831:A1 I *D sky130_fd_sc_hd__o21a_2
*I *871:A I *D sky130_fd_sc_hd__or4b_2
*I *870:A_N I *D sky130_fd_sc_hd__and4bb_2
*I *930:Q O *D sky130_fd_sc_hd__dfxtp_2
*CAP
1 *828:A 2.8765e-05
2 *831:A1 0.000212056
3 *871:A 4.15123e-05
4 *870:A_N 0.000276862
5 *930:Q 0.000230572
6 *141:32 0.000240821
7 *141:8 0.000456564
8 *141:6 0.000368762
9 *831:A1 *143:11 6.23206e-05
10 *831:A1 *143:65 7.67465e-05
11 *870:A_N *930:CLK 8.09809e-05
12 *871:A *143:65 6.49377e-05
13 *141:6 *930:CLK 0.000338716
14 *141:8 *930:CLK 0.000184712
15 *829:D *828:A 0.000109989
16 *829:D *831:A1 0.000245893
17 *831:A2 *831:A1 9.50342e-06
18 *831:B1 *831:A1 0.000296094
19 *832:B *871:A 1.26626e-05
20 *871:C *871:A 9.37731e-05
21 *109:8 *870:A_N 8.8266e-05
22 *116:132 *828:A 0.00011852
23 *116:132 *831:A1 0.000119214
24 *116:132 *870:A_N 0.000107703
25 *121:46 *870:A_N 2.75145e-05
26 *121:50 *831:A1 9.29751e-06
27 *121:83 *831:A1 1.73877e-05
28 *121:94 *831:A1 4.41381e-05
*RES
1 *930:Q *141:6 4.81 
2 *141:6 *141:8 1.83 
3 *141:8 *870:A_N 6.475 
4 *141:8 *871:A 6.98 
5 *141:6 *141:32 2 
6 *141:32 *831:A1 10.59 
7 *141:32 *828:A 4.98 
*END

*D_NET *142 0.00102862
*CONN
*I *832:A I *D sky130_fd_sc_hd__xor2_2
*I *871:D_N I *D sky130_fd_sc_hd__or4b_2
*I *870:D I *D sky130_fd_sc_hd__and4bb_2
*I *931:Q O *D sky130_fd_sc_hd__dfxtp_2
*CAP
1 *832:A 0.000119856
2 *871:D_N 0
3 *870:D 2.77685e-05
4 *931:Q 0.000109413
5 *142:19 0.000140727
6 *142:8 0.000158053
7 *825:A2 *870:D 3.86529e-05
8 *825:A2 *142:19 1.07797e-05
9 *832:B *832:A 6.00003e-05
10 *833:C *832:A 0
11 *833:C *142:19 0
12 *110:8 *142:8 7.40446e-05
13 *110:20 *142:8 8.65905e-05
14 *140:46 *832:A 7.87426e-05
15 *140:46 *870:D 7.23533e-05
16 *140:46 *142:19 5.16418e-05
*RES
1 *931:Q *142:8 5.085 
2 *142:8 *870:D 4.47 
3 *142:8 *142:19 0.615 
4 *142:19 *871:D_N 3.6 
5 *142:19 *832:A 6.195 
*END

*D_NET *143 0.00785059
*CONN
*I *945:A I *D sky130_fd_sc_hd__clkbuf_16
*I *944:A I *D sky130_fd_sc_hd__clkbuf_16
*I *942:A I *D sky130_fd_sc_hd__clkbuf_16
*I *943:A I *D sky130_fd_sc_hd__clkbuf_16
*I *941:X O *D sky130_fd_sc_hd__clkbuf_16
*CAP
1 *945:A 8.3236e-05
2 *944:A 9.70224e-05
3 *942:A 8.85105e-05
4 *943:A 0
5 *941:X 0
6 *143:79 0.000205245
7 *143:67 0.000495128
8 *143:65 0.00119407
9 *143:43 0.000890587
10 *143:29 0.00049613
11 *143:11 0.00173791
12 *143:6 0.00111366
13 *942:A *144:27 5.83121e-06
14 *942:A *148:100 4.89621e-05
15 *143:43 *144:8 6.71686e-05
16 *143:43 *148:100 6.78403e-05
17 *829:D *143:65 0.000214516
18 *831:A1 *143:11 6.23206e-05
19 *831:A1 *143:65 7.67465e-05
20 *831:A2 *143:11 7.55313e-05
21 *832:B *143:65 2.63266e-06
22 *870:C *143:11 3.56184e-05
23 *871:A *143:65 6.49377e-05
24 *871:C *143:65 1.23244e-05
25 *928:D *143:29 4.15611e-05
26 *929:D *143:11 0
27 *930:D *143:11 5.39718e-05
28 *930:D *143:65 0.000218754
29 *67:10 *143:29 2.86462e-05
30 *116:132 *143:65 0
31 *121:50 *143:11 0
32 *139:10 *143:11 9.97885e-05
33 *139:10 *143:29 3.14077e-05
34 *140:10 *143:11 0.00016875
35 *140:27 *143:11 7.17811e-05
*RES
1 *941:X *143:6 3.6 
2 *143:6 *143:11 10.305 
3 *143:11 *143:29 10.5926 
4 *143:29 *943:A 3.6 
5 *143:11 *143:43 13.6625 
6 *143:43 *942:A 2.9125 
7 *143:6 *143:65 15.425 
8 *143:65 *143:67 5.9925 
9 *143:67 *944:A 3.0625 
10 *143:65 *143:79 1.755 
11 *143:79 *945:A 2.815 
*END

*D_NET *144 0.0103589
*CONN
*I *910:CLK I *D sky130_fd_sc_hd__dfxtp_2
*I *932:CLK I *D sky130_fd_sc_hd__dfxtp_2
*I *937:CLK I *D sky130_fd_sc_hd__dfxtp_2
*I *938:CLK I *D sky130_fd_sc_hd__dfxtp_2
*I *933:CLK I *D sky130_fd_sc_hd__dfxtp_2
*I *935:CLK I *D sky130_fd_sc_hd__dfxtp_2
*I *936:CLK I *D sky130_fd_sc_hd__dfxtp_2
*I *946:A I *D sky130_fd_sc_hd__clkbuf_8
*I *942:X O *D sky130_fd_sc_hd__clkbuf_16
*CAP
1 *910:CLK 0.000292418
2 *932:CLK 0
3 *937:CLK 0
4 *938:CLK 0.000203402
5 *933:CLK 0.000436077
6 *935:CLK 0.000100534
7 *936:CLK 3.18738e-05
8 *946:A 4.8357e-05
9 *942:X 0.000378292
10 *144:80 0.00034827
11 *144:44 0.00086207
12 *144:35 0.000721852
13 *144:31 0.000608816
14 *144:27 0.000439312
15 *144:10 0.000475844
16 *144:8 0.000463214
17 *910:CLK *960:A 2.1852e-05
18 *933:CLK *838:A1 0.000235573
19 *933:CLK *841:A0 8.61608e-05
20 *933:CLK *841:A1 0.000159329
21 *933:CLK *846:A 6.77501e-05
22 *935:CLK *844:A0 5.39961e-05
23 *935:CLK *846:A 1.0183e-05
24 *935:CLK *164:8 7.23602e-05
25 *938:CLK *855:A 0.000324443
26 *144:8 *148:100 0.000305651
27 *144:27 *148:100 0.000157388
28 *144:27 *148:108 0.000675312
29 *144:35 *855:A 9.12494e-06
30 *144:35 *148:139 0.00048839
31 *144:44 *846:A 0.000123225
32 *838:S *933:CLK 0.000187742
33 *841:S *933:CLK 0.000122797
34 *842:A0 *933:CLK 0.000308393
35 *845:A0 *935:CLK 0
36 *846:B *935:CLK 2.92496e-05
37 *847:S *144:35 0
38 *848:A0 *144:35 0
39 *848:S *935:CLK 0
40 *849:B *144:35 0
41 *852:B *144:35 9.18556e-05
42 *855:B *938:CLK 2.98587e-05
43 *880:A1 *910:CLK 0.000116853
44 *880:B1 *910:CLK 0
45 *910:D *910:CLK 7.06865e-05
46 *932:D *910:CLK 3.12855e-05
47 *932:D *946:A 0.000156225
48 *932:D *144:10 4.72867e-05
49 *932:D *144:80 0.000114649
50 *936:D *144:35 0
51 *936:D *144:44 9.03376e-05
52 *937:D *144:27 9.99182e-05
53 *937:D *144:31 5.07723e-05
54 *938:D *938:CLK 8.35157e-05
55 *942:A *144:27 5.83121e-06
56 *82:39 *144:35 0
57 *104:37 *946:A 9.75049e-06
58 *104:37 *144:10 1.01276e-05
59 *104:37 *144:27 0.000302163
60 *104:43 *946:A 0.000131397
61 *143:43 *144:8 6.71686e-05
*RES
1 *942:X *144:8 8.535 
2 *144:8 *144:10 0.615 
3 *144:10 *946:A 5.49 
4 *144:10 *144:27 13.265 
5 *144:27 *144:31 2.795 
6 *144:31 *144:35 10.265 
7 *144:35 *936:CLK 2.05 
8 *144:35 *144:44 5.28 
9 *144:44 *935:CLK 7.49 
10 *144:44 *933:CLK 12.055 
11 *144:31 *938:CLK 8.58 
12 *144:27 *937:CLK 1.6 
13 *144:8 *144:80 1.38 
14 *144:80 *932:CLK 3.6 
15 *144:80 *910:CLK 8.685 
*END

*D_NET *145 0.00868068
*CONN
*I *922:CLK I *D sky130_fd_sc_hd__dfxtp_2
*I *923:CLK I *D sky130_fd_sc_hd__dfxtp_2
*I *929:CLK I *D sky130_fd_sc_hd__dfxtp_2
*I *926:CLK I *D sky130_fd_sc_hd__dfxtp_2
*I *927:CLK I *D sky130_fd_sc_hd__dfxtp_2
*I *928:CLK I *D sky130_fd_sc_hd__dfxtp_2
*I *934:CLK I *D sky130_fd_sc_hd__dfxtp_2
*I *924:CLK I *D sky130_fd_sc_hd__dfxtp_2
*I *925:CLK I *D sky130_fd_sc_hd__dfxtp_2
*I *943:X O *D sky130_fd_sc_hd__clkbuf_16
*CAP
1 *922:CLK 0.000232414
2 *923:CLK 0.000103395
3 *929:CLK 0.000223803
4 *926:CLK 0.000110666
5 *927:CLK 0.000141286
6 *928:CLK 0
7 *934:CLK 0.000414712
8 *924:CLK 0.000272551
9 *925:CLK 5.7008e-05
10 *943:X 0.000404292
11 *145:91 0.000345475
12 *145:89 0.000455625
13 *145:61 0.000379038
14 *145:59 0.00033202
15 *145:27 0.000687263
16 *145:16 0.000488796
17 *145:8 0.00083608
18 *809:B1_N *923:CLK 5.4419e-05
19 *809:B1_N *145:91 1.64067e-05
20 *811:A *929:CLK 0.000195986
21 *811:C *929:CLK 8.46818e-05
22 *811:D *929:CLK 2.69153e-05
23 *812:A_N *145:16 0
24 *816:A3 *145:61 0.00019483
25 *818:B *145:61 9.23578e-05
26 *819:A3 *927:CLK 0.000202758
27 *819:A4 *927:CLK 0.000183502
28 *819:A4 *145:61 0.000181376
29 *820:B *926:CLK 1.56428e-05
30 *821:A2 *926:CLK 2.30292e-05
31 *821:B1 *927:CLK 3.45588e-05
32 *874:A *927:CLK 3.22035e-05
33 *876:C *145:89 1.76054e-05
34 *923:D *923:CLK 8.9257e-05
35 *924:D *924:CLK 0
36 *925:D *924:CLK 1.70935e-05
37 *925:D *934:CLK 5.21046e-05
38 *925:D *145:16 1.43717e-05
39 *62:18 *923:CLK 4.77769e-05
40 *64:26 *926:CLK 0.000232999
41 *67:10 *929:CLK 5.8403e-05
42 *67:10 *145:16 0
43 *120:55 *922:CLK 1.84465e-05
44 *120:55 *923:CLK 3.1191e-05
45 *120:55 *145:61 8.77615e-05
46 *120:55 *145:89 0.000141878
47 *120:55 *145:91 1.55955e-05
48 *120:57 *927:CLK 1.1561e-05
49 *120:57 *145:61 8.34426e-05
50 *124:14 *922:CLK 1.42674e-05
51 *124:14 *929:CLK 0.000182883
52 *125:38 *922:CLK 0.000184661
53 *125:46 *922:CLK 0.000121036
54 *125:46 *929:CLK 6.56289e-05
55 *128:18 *927:CLK 0.000347029
56 *129:8 *927:CLK 2.26018e-05
*RES
1 *943:X *145:8 7.24 
2 *145:8 *145:16 10.54 
3 *145:16 *925:CLK 2.41 
4 *145:16 *145:27 2 
5 *145:27 *924:CLK 8.04 
6 *145:27 *934:CLK 10.17 
7 *145:8 *928:CLK 1.6 
8 *943:X *145:59 3.6 
9 *145:59 *145:61 4.695 
10 *145:61 *927:CLK 8.805 
11 *145:61 *926:CLK 6.12 
12 *145:59 *145:89 4.1025 
13 *145:89 *145:91 0.4875 
14 *145:91 *929:CLK 9.57 
15 *145:91 *923:CLK 5.94 
16 *145:89 *922:CLK 7.8525 
*END

*D_NET *146 0.00834114
*CONN
*I *915:CLK I *D sky130_fd_sc_hd__dfxtp_2
*I *914:CLK I *D sky130_fd_sc_hd__dfxtp_2
*I *947:A I *D sky130_fd_sc_hd__clkbuf_4
*I *911:CLK I *D sky130_fd_sc_hd__dfxtp_2
*I *931:CLK I *D sky130_fd_sc_hd__dfxtp_2
*I *940:CLK I *D sky130_fd_sc_hd__dfxtp_2
*I *913:CLK I *D sky130_fd_sc_hd__dfxtp_2
*I *912:CLK I *D sky130_fd_sc_hd__dfxtp_2
*I *939:CLK I *D sky130_fd_sc_hd__dfxtp_2
*I *944:X O *D sky130_fd_sc_hd__clkbuf_16
*CAP
1 *915:CLK 0.000300041
2 *914:CLK 0
3 *947:A 0
4 *911:CLK 0.000123949
5 *931:CLK 0.000189308
6 *940:CLK 0
7 *913:CLK 6.74487e-05
8 *912:CLK 3.37585e-05
9 *939:CLK 0.000583919
10 *944:X 0
11 *146:97 0.0006215
12 *146:60 0.00048128
13 *146:33 0.000511532
14 *146:16 0.000994244
15 *146:14 0.000495086
16 *146:12 0.000778858
17 *146:8 0.000228987
18 *146:6 0.000434695
19 *913:CLK *886:A1 6.71803e-06
20 *913:CLK *150:73 8.30462e-05
21 *915:CLK *891:A1 2.92538e-05
22 *915:CLK *892:A 0.000124384
23 *939:CLK *150:32 0
24 *146:14 *882:A1 4.62479e-05
25 *146:14 *150:28 0.00037229
26 *146:14 *168:8 4.38278e-05
27 *146:33 *150:32 0
28 *146:33 *150:52 0
29 *146:33 *150:65 0
30 *146:33 *150:73 0.000113972
31 *833:C *931:CLK 6.84196e-05
32 *858:B *939:CLK 7.80521e-05
33 *886:B1 *146:33 0
34 *890:A *146:33 0.000143501
35 *892:B *915:CLK 1.48873e-05
36 *892:C *915:CLK 0.000101436
37 *892:D *915:CLK 0.000121019
38 *893:C *146:97 0.000159964
39 *911:D *911:CLK 3.92307e-05
40 *911:D *146:12 4.43871e-06
41 *911:D *146:60 0.000196669
42 *913:D *913:CLK 3.68682e-05
43 *914:D *146:97 3.78652e-05
44 *931:D *931:CLK 4.99619e-05
45 *939:D *939:CLK 0.000106849
46 *940:D *146:14 0.000242666
47 *950:A *939:CLK 6.55328e-05
48 *4:18 *913:CLK 0
49 *4:18 *939:CLK 0
50 *4:18 *146:33 0
51 *51:8 *915:CLK 0
52 *110:20 *931:CLK 1.52352e-05
53 *120:141 *931:CLK 4.13879e-05
54 *120:150 *931:CLK 0.000152814
55 *120:150 *146:8 0
56 *120:150 *146:12 0
57 *120:150 *146:97 0
58 *120:163 *146:97 0
*RES
1 *944:X *146:6 3.6 
2 *146:6 *146:8 1.89 
3 *146:8 *146:12 3.635 
4 *146:12 *146:14 10.455 
5 *146:14 *146:16 2 
6 *146:16 *939:CLK 12.585 
7 *146:16 *146:33 8.265 
8 *146:33 *912:CLK 4.05 
9 *146:33 *913:CLK 5.49 
10 *146:14 *940:CLK 1.6 
11 *146:12 *146:60 2.88 
12 *146:60 *931:CLK 9.83 
13 *146:60 *911:CLK 3.445 
14 *146:8 *947:A 3.6 
15 *146:6 *146:97 5.955 
16 *146:97 *914:CLK 3.6 
17 *146:97 *915:CLK 9.39 
*END

*D_NET *147 0.0101006
*CONN
*I *920:CLK I *D sky130_fd_sc_hd__dfxtp_2
*I *916:CLK I *D sky130_fd_sc_hd__dfxtp_2
*I *917:CLK I *D sky130_fd_sc_hd__dfxtp_2
*I *919:CLK I *D sky130_fd_sc_hd__dfxtp_2
*I *948:A I *D sky130_fd_sc_hd__clkbuf_8
*I *918:CLK I *D sky130_fd_sc_hd__dfxtp_2
*I *921:CLK I *D sky130_fd_sc_hd__dfxtp_2
*I *930:CLK I *D sky130_fd_sc_hd__dfxtp_2
*I *945:X O *D sky130_fd_sc_hd__clkbuf_16
*CAP
1 *920:CLK 0.000317554
2 *916:CLK 9.50235e-05
3 *917:CLK 0.000369617
4 *919:CLK 0.000196134
5 *948:A 0.0001773
6 *918:CLK 3.76639e-05
7 *921:CLK 0.000564902
8 *930:CLK 0.000328149
9 *945:X 0.000446832
10 *147:78 0.000953969
11 *147:72 0.000840591
12 *147:61 0.000423502
13 *147:16 0.00105179
14 *147:12 0.000267667
15 *147:10 0.000501739
16 *867:B *147:78 2.30292e-05
17 *870:A_N *930:CLK 8.09809e-05
18 *875:D *920:CLK 2.37321e-05
19 *875:D *147:61 7.97066e-05
20 *875:D *147:72 1.52945e-05
21 *876:B *921:CLK 2.36716e-05
22 *876:B *147:10 0.000160658
23 *876:B *147:12 0.00013994
24 *876:B *147:16 0.000342942
25 *876:D_N *921:CLK 0.000111901
26 *897:A2 *916:CLK 1.65192e-05
27 *900:A1 *916:CLK 0
28 *901:A3 *948:A 8.31082e-05
29 *901:A3 *147:10 0
30 *902:A *147:61 0.000116158
31 *906:A *919:CLK 0.0001249
32 *906:A *147:78 0.000501139
33 *906:B *147:61 0
34 *906:C *920:CLK 1.83847e-05
35 *907:A *920:CLK 0
36 *908:B1 *920:CLK 2.75145e-05
37 *917:D *917:CLK 1.43717e-05
38 *919:D *919:CLK 0.000163199
39 *930:D *930:CLK 7.7152e-05
40 *47:12 *916:CLK 9.14049e-05
41 *51:29 *917:CLK 0
42 *51:39 *917:CLK 0.000118119
43 *51:39 *147:78 2.86752e-05
44 *51:48 *147:78 4.82863e-05
45 *53:8 *917:CLK 0.000352161
46 *57:14 *147:10 2.18044e-05
47 *59:16 *920:CLK 6.47326e-05
48 *108:8 *921:CLK 3.07153e-05
49 *115:14 *921:CLK 4.82919e-05
50 *116:132 *930:CLK 5.01735e-05
51 *132:47 *920:CLK 0
52 *132:51 *147:61 0
53 *134:8 *147:78 6.07575e-06
54 *138:38 *921:CLK 0
55 *141:6 *930:CLK 0.000338716
56 *141:8 *930:CLK 0.000184712
*RES
1 *945:X *147:10 7.32 
2 *147:10 *147:12 1.635 
3 *147:12 *147:16 5.93 
4 *147:16 *930:CLK 8.965 
5 *147:16 *921:CLK 10 
6 *147:12 *918:CLK 4.05 
7 *147:10 *948:A 6.465 
8 *945:X *147:61 7.53 
9 *147:61 *919:CLK 7.5 
10 *147:61 *147:72 0.615 
11 *147:72 *147:78 8.675 
12 *147:78 *917:CLK 8.275 
13 *147:78 *916:CLK 7.235 
14 *147:72 *920:CLK 9.135 
*END

*D_NET *148 0.0145334
*CONN
*I *856:B1 I *D sky130_fd_sc_hd__a31o_2
*I *880:C1 I *D sky130_fd_sc_hd__a211o_2
*I *883:A I *D sky130_fd_sc_hd__nor2_2
*I *849:A I *D sky130_fd_sc_hd__or2_2
*I *855:A I *D sky130_fd_sc_hd__or2_2
*I *852:A I *D sky130_fd_sc_hd__or2_2
*I *846:A I *D sky130_fd_sc_hd__or2_2
*I *837:A I *D sky130_fd_sc_hd__or2_2
*I *840:A I *D sky130_fd_sc_hd__or2_2
*I *843:A I *D sky130_fd_sc_hd__or2_2
*I *864:A I *D sky130_fd_sc_hd__inv_2
*I *949:X O *D sky130_fd_sc_hd__clkdlybuf4s25_1
*CAP
1 *856:B1 0
2 *880:C1 3.52008e-05
3 *883:A 0
4 *849:A 0
5 *855:A 0.000153374
6 *852:A 0
7 *846:A 0.000327742
8 *837:A 0
9 *840:A 2.58236e-05
10 *843:A 0.00032084
11 *864:A 9.30628e-05
12 *949:X 3.38218e-05
13 *148:139 0.000561203
14 *148:133 0.000567284
15 *148:108 0.00107473
16 *148:100 0.000760794
17 *148:61 0.000441664
18 *148:57 0.000299355
19 *148:47 0.000499442
20 *148:45 0.000450679
21 *148:30 0.00135158
22 *148:8 0.000998691
23 *843:A *842:A1 3.10059e-05
24 *843:A *162:10 8.54809e-05
25 *148:8 *856:A3 3.00381e-05
26 *148:30 *853:A0 0
27 *148:30 *856:A2 0
28 *148:30 *856:A3 9.54469e-05
29 *148:30 *866:B 8.52883e-05
30 *148:30 *167:12 0.000238137
31 *148:61 *162:10 3.17252e-05
32 *148:108 *847:A0 0
33 *835:S *840:A 4.77719e-05
34 *836:A0 *148:47 9.84869e-05
35 *836:A0 *148:57 0.000135634
36 *837:B *148:47 0.00025528
37 *837:B *148:57 0.000399571
38 *837:B *148:61 9.09788e-06
39 *845:A0 *846:A 0
40 *845:S *148:133 4.82919e-05
41 *846:B *846:A 0
42 *848:S *846:A 0.000130065
43 *856:A1 *148:8 1.85674e-05
44 *857:A3 *148:30 0.000124007
45 *857:B1 *148:30 3.84487e-05
46 *866:A *148:30 9.08126e-05
47 *878:A1 *148:45 0.000205149
48 *878:A2 *148:45 0.000157915
49 *878:B1 *148:45 1.71207e-05
50 *880:A1 *148:45 0
51 *880:A2 *880:C1 8.52845e-05
52 *880:B1 *148:45 0.000147174
53 *880:B1 *148:47 3.60024e-06
54 *884:B *864:A 0
55 *933:CLK *846:A 6.77501e-05
56 *934:D *843:A 4.89295e-05
57 *935:CLK *846:A 1.0183e-05
58 *938:CLK *855:A 0.000324443
59 *942:A *148:100 4.89621e-05
60 *4:18 *864:A 5.41023e-05
61 *4:18 *148:30 0.000181881
62 *82:37 *148:108 0.000158845
63 *82:39 *846:A 2.42802e-05
64 *82:39 *148:108 0.000299982
65 *82:95 *148:45 0.000136883
66 *100:32 *148:30 1.52352e-05
67 *100:45 *148:30 0.00034689
68 *100:69 *148:30 1.14169e-05
69 *103:8 *864:A 4.89295e-05
70 *104:37 *148:100 8.61067e-05
71 *104:43 *843:A 0
72 *104:43 *148:61 0
73 *104:43 *148:100 9.09788e-06
74 *104:45 *843:A 0
75 *105:25 *864:A 2.01504e-05
76 *109:25 *864:A 3.94692e-05
77 *109:25 *148:45 5.16418e-05
78 *116:20 *864:A 3.09164e-05
79 *120:18 *148:100 3.78941e-05
80 *120:18 *148:108 4.77757e-05
81 *143:43 *148:100 6.78403e-05
82 *144:8 *148:100 0.000305651
83 *144:27 *148:100 0.000157388
84 *144:27 *148:108 0.000675312
85 *144:35 *855:A 9.12494e-06
86 *144:35 *148:139 0.00048839
87 *144:44 *846:A 0.000123225
*RES
1 *949:X *148:8 2.41 
2 *148:8 *148:30 25.255 
3 *148:30 *864:A 5.775 
4 *148:30 *148:45 7.44 
5 *148:45 *148:47 3.675 
6 *148:47 *148:57 7.7 
7 *148:57 *148:61 3.635 
8 *148:61 *843:A 9.045 
9 *148:61 *840:A 4.05 
10 *148:57 *837:A 1.6 
11 *148:47 *148:100 10.86 
12 *148:100 *148:108 14.135 
13 *148:108 *846:A 10.065 
14 *148:108 *148:133 4.175 
15 *148:133 *148:139 9.89 
16 *148:139 *852:A 3.6 
17 *148:139 *855:A 7.53 
18 *148:133 *849:A 1.6 
19 *148:100 *883:A 1.6 
20 *148:45 *880:C1 4.395 
21 *148:8 *856:B1 1.6 
*END

*D_NET *149 0.00391818
*CONN
*I *882:A2 I *D sky130_fd_sc_hd__o211a_2
*I *866:B I *D sky130_fd_sc_hd__nand2_2
*I *865:B I *D sky130_fd_sc_hd__and2_2
*I *856:A2 I *D sky130_fd_sc_hd__a31o_2
*I *950:X O *D sky130_fd_sc_hd__clkdlybuf4s25_1
*CAP
1 *882:A2 0.000146108
2 *866:B 1.81112e-05
3 *865:B 0
4 *856:A2 0.000173035
5 *950:X 0.000283057
6 *149:16 0.000425555
7 *149:10 0.000531763
8 *149:6 0.000690297
9 *856:A2 *853:A0 3.76625e-05
10 *856:A2 *856:A3 4.01025e-05
11 *882:A2 *882:A1 1.20741e-05
12 *149:6 *861:A 0.000124895
13 *856:A1 *856:A2 0.000159378
14 *857:A2 *149:6 0.000122337
15 *857:A3 *149:10 0
16 *858:A *856:A2 0.000107817
17 *858:A *149:16 9.91257e-05
18 *4:18 *866:B 5.41079e-05
19 *100:23 *856:A2 4.82919e-05
20 *100:23 *149:16 7.66083e-05
21 *100:32 *149:16 0.000355879
22 *110:20 *882:A2 0.00017187
23 *110:20 *149:6 0.00015482
24 *116:50 *149:10 0
25 *148:30 *856:A2 0
26 *148:30 *866:B 8.52883e-05
*RES
1 *950:X *149:6 6.535 
2 *149:6 *149:10 5.93 
3 *149:10 *149:16 7.79 
4 *149:16 *856:A2 9.38 
5 *149:16 *865:B 1.6 
6 *149:10 *866:B 4.395 
7 *149:6 *882:A2 4.48 
*END

*D_NET *150 0.00791976
*CONN
*I *889:A1 I *D sky130_fd_sc_hd__a311o_2
*I *888:A1 I *D sky130_fd_sc_hd__a21oi_2
*I *892:A I *D sky130_fd_sc_hd__and4_2
*I *891:A1 I *D sky130_fd_sc_hd__a31o_2
*I *886:A1 I *D sky130_fd_sc_hd__a21oi_2
*I *885:A1 I *D sky130_fd_sc_hd__o21ai_2
*I *861:A I *D sky130_fd_sc_hd__inv_2
*I *959:A I *D sky130_fd_sc_hd__clkdlybuf4s25_1
*I *882:A1 I *D sky130_fd_sc_hd__o211a_2
*I *911:Q O *D sky130_fd_sc_hd__dfxtp_2
*CAP
1 *889:A1 0.000124572
2 *888:A1 0
3 *892:A 6.23107e-05
4 *891:A1 6.0137e-05
5 *886:A1 0.000169617
6 *885:A1 5.08526e-05
7 *861:A 6.89091e-05
8 *959:A 0.000216096
9 *882:A1 0.000196113
10 *911:Q 0.000676674
11 *150:92 0.000704293
12 *150:73 0.000931128
13 *150:69 0.000305297
14 *150:65 0.000326359
15 *150:52 0.000302756
16 *150:32 0.000462924
17 *150:28 0.000834226
18 *150:32 *857:A1 0
19 *150:32 *859:A1 0
20 *882:A2 *882:A1 1.20741e-05
21 *882:B1 *882:A1 4.43871e-06
22 *885:A2 *885:A1 4.99619e-05
23 *886:A2 *886:A1 8.65905e-05
24 *886:B1 *885:A1 8.65961e-05
25 *886:B1 *150:52 3.09164e-05
26 *886:B1 *150:65 0.000163019
27 *886:B1 *150:73 0
28 *888:A2 *889:A1 8.23457e-05
29 *888:A2 *150:69 0.000234066
30 *888:B1 *889:A1 1.47347e-05
31 *889:B1 *889:A1 9.53428e-06
32 *889:C1 *150:52 0
33 *890:A *150:69 1.16578e-05
34 *892:C *891:A1 3.45117e-05
35 *892:C *892:A 0.000224276
36 *892:C *150:92 8.41307e-05
37 *911:D *882:A1 3.47837e-05
38 *912:D *886:A1 8.85956e-05
39 *912:D *150:73 5.21545e-05
40 *912:D *150:92 1.93834e-05
41 *913:CLK *886:A1 6.71803e-06
42 *913:CLK *150:73 8.30462e-05
43 *915:CLK *891:A1 2.92538e-05
44 *915:CLK *892:A 0.000124384
45 *939:CLK *150:32 0
46 *940:D *150:28 4.66108e-05
47 *940:D *150:32 2.92496e-05
48 *940:D *150:52 9.54399e-05
49 *950:A *150:32 0
50 *110:20 *882:A1 1.12643e-05
51 *121:16 *150:52 0
52 *130:18 *891:A1 4.1652e-06
53 *130:22 *889:A1 1.61831e-05
54 *146:14 *882:A1 4.62479e-05
55 *146:14 *150:28 0.00037229
56 *146:33 *150:32 0
57 *146:33 *150:52 0
58 *146:33 *150:65 0
59 *146:33 *150:73 0.000113972
60 *149:6 *861:A 0.000124895
*RES
1 *911:Q *882:A1 10.0837 
2 *911:Q *150:28 9.915 
3 *150:28 *150:32 4.91 
4 *150:32 *959:A 4.84 
5 *150:32 *861:A 3.085 
6 *150:28 *150:52 3.42 
7 *150:52 *885:A1 4.74 
8 *150:52 *150:65 3.89 
9 *150:65 *150:69 2.535 
10 *150:69 *150:73 6.0575 
11 *150:73 *886:A1 7.2675 
12 *150:73 *150:92 10.3775 
13 *150:92 *891:A1 6.725 
14 *150:92 *892:A 3.775 
15 *150:69 *888:A1 1.6 
16 *150:65 *889:A1 3.91 
*END

*D_NET *151 0.00259703
*CONN
*I *960:A I *D sky130_fd_sc_hd__clkdlybuf4s25_1
*I *878:C1 I *D sky130_fd_sc_hd__o211a_2
*I *910:Q O *D sky130_fd_sc_hd__dfxtp_2
*CAP
1 *960:A 0.00106836
2 *878:C1 9.05054e-05
3 *910:Q 0
4 *151:4 0.00115886
5 *855:B *960:A 3.07153e-05
6 *879:B *878:C1 0
7 *910:CLK *960:A 2.1852e-05
8 *910:D *960:A 1.43717e-05
9 *82:29 *960:A 5.05437e-05
10 *82:37 *960:A 4.16353e-05
11 *82:95 *878:C1 0.000120186
*RES
1 *910:Q *151:4 1.6 
2 *151:4 *878:C1 7.43 
3 *151:4 *960:A 16.915 
*END

*D_NET *152 0.00124315
*CONN
*I *835:A1 I *D sky130_fd_sc_hd__mux2_1
*I *951:X O *D sky130_fd_sc_hd__clkdlybuf4s25_1
*CAP
1 *835:A1 0.000404972
2 *951:X 0.000404972
3 *842:S *835:A1 0
4 *933:D *835:A1 7.36562e-05
5 *934:D *835:A1 0.000355896
6 *951:A *835:A1 3.64998e-06
*RES
1 *951:X *835:A1 14.145 
*END

*D_NET *153 0.00162608
*CONN
*I *838:A1 I *D sky130_fd_sc_hd__mux2_1
*I *952:X O *D sky130_fd_sc_hd__clkdlybuf4s25_1
*CAP
1 *838:A1 0.00059614
2 *952:X 0.00059614
3 *838:A1 *161:12 2.77183e-05
4 *839:A0 *838:A1 0.000155103
5 *842:S *838:A1 0
6 *933:CLK *838:A1 0.000235573
7 *933:D *838:A1 1.54049e-05
*RES
1 *952:X *838:A1 17.745 
*END

*D_NET *154 0.000827191
*CONN
*I *841:A1 I *D sky130_fd_sc_hd__mux2_1
*I *953:X O *D sky130_fd_sc_hd__clkdlybuf4s25_1
*CAP
1 *841:A1 0.000220007
2 *953:X 0.000220007
3 *841:A1 *841:A0 4.89295e-05
4 *844:S *841:A1 0.000178919
5 *933:CLK *841:A1 0.000159329
*RES
1 *953:X *841:A1 11.85 
*END

*D_NET *155 0.00102164
*CONN
*I *844:A1 I *D sky130_fd_sc_hd__mux2_1
*I *954:X O *D sky130_fd_sc_hd__clkdlybuf4s25_1
*CAP
1 *844:A1 0.000258567
2 *954:X 0.000258567
3 *844:A1 *844:A0 4.82863e-05
4 *844:S *844:A1 0.000178106
5 *954:A *844:A1 0.000278117
*RES
1 *954:X *844:A1 8.48 
*END

*D_NET *156 0.000463301
*CONN
*I *847:A1 I *D sky130_fd_sc_hd__mux2_1
*I *955:X O *D sky130_fd_sc_hd__clkdlybuf4s25_1
*CAP
1 *847:A1 0.000135056
2 *955:X 0.000135056
3 *847:A1 *847:A0 4.66108e-05
4 *847:S *847:A1 2.16833e-05
5 *848:A0 *847:A1 0.000124895
*RES
1 *955:X *847:A1 5.72 
*END

*D_NET *157 0.000304445
*CONN
*I *850:A1 I *D sky130_fd_sc_hd__mux2_1
*I *956:X O *D sky130_fd_sc_hd__clkdlybuf4s25_1
*CAP
1 *850:A1 0.000152222
2 *956:X 0.000152222
*RES
1 *956:X *850:A1 5.375 
*END

*D_NET *158 0.000499414
*CONN
*I *853:A1 I *D sky130_fd_sc_hd__mux2_1
*I *957:X O *D sky130_fd_sc_hd__clkdlybuf4s25_1
*CAP
1 *853:A1 0.000151754
2 *957:X 0.000151754
3 *854:A0 *853:A1 0.000122325
4 *104:16 *853:A1 7.35813e-05
*RES
1 *957:X *853:A1 6.065 
*END

*D_NET *159 0.00058534
*CONN
*I *856:A3 I *D sky130_fd_sc_hd__a31o_2
*I *958:X O *D sky130_fd_sc_hd__clkdlybuf4s25_1
*CAP
1 *856:A3 0.000157962
2 *958:X 0.000157962
3 *856:A1 *856:A3 0.000103828
4 *856:A2 *856:A3 4.01025e-05
5 *148:8 *856:A3 3.00381e-05
6 *148:30 *856:A3 9.54469e-05
*RES
1 *958:X *856:A3 10.62 
*END

*D_NET *160 0.000709284
*CONN
*I *879:A I *D sky130_fd_sc_hd__or2_2
*I *836:A1 I *D sky130_fd_sc_hd__mux2_1
*I *932:Q O *D sky130_fd_sc_hd__dfxtp_2
*CAP
1 *879:A 3.66302e-05
2 *836:A1 1.9321e-05
3 *932:Q 9.60104e-05
4 *160:10 0.000151962
5 *880:A2 *836:A1 0.000122817
6 *880:A2 *879:A 3.69049e-05
7 *82:95 *836:A1 8.64599e-05
8 *82:106 *836:A1 3.63576e-05
9 *82:106 *879:A 0.000122821
*RES
1 *932:Q *160:10 6.98 
2 *160:10 *836:A1 2.74 
3 *160:10 *879:A 2.74 
*END

*D_NET *161 0.00135754
*CONN
*I *839:A1 I *D sky130_fd_sc_hd__mux2_1
*I *835:A0 I *D sky130_fd_sc_hd__mux2_1
*I *933:Q O *D sky130_fd_sc_hd__dfxtp_2
*CAP
1 *839:A1 0
2 *835:A0 0.000185623
3 *933:Q 0.000213438
4 *161:12 0.000399061
5 *835:S *835:A0 8.65961e-05
6 *838:A1 *161:12 2.77183e-05
7 *839:A0 *161:12 0.000139245
8 *839:S *835:A0 4.41506e-05
9 *840:B *835:A0 0.000239813
10 *933:D *835:A0 1.03323e-05
11 *82:106 *161:12 1.1561e-05
*RES
1 *933:Q *161:12 8.975 
2 *161:12 *835:A0 5.5 
3 *161:12 *839:A1 1.6 
*END

*D_NET *162 0.00134235
*CONN
*I *838:A0 I *D sky130_fd_sc_hd__mux2_1
*I *842:A1 I *D sky130_fd_sc_hd__mux2_1
*I *934:Q O *D sky130_fd_sc_hd__dfxtp_2
*CAP
1 *838:A0 5.74818e-05
2 *842:A1 9.1004e-05
3 *934:Q 0.000215735
4 *162:10 0.000364221
5 *836:A0 *162:10 8.5225e-05
6 *842:A0 *838:A0 8.65905e-05
7 *842:A0 *842:A1 0.000122315
8 *842:A0 *162:10 2.92496e-05
9 *843:A *842:A1 3.10059e-05
10 *843:A *162:10 8.54809e-05
11 *934:D *842:A1 8.16631e-05
12 *934:D *162:10 6.06486e-05
13 *148:61 *162:10 3.17252e-05
*RES
1 *934:Q *162:10 8.235 
2 *162:10 *842:A1 5.865 
3 *162:10 *838:A0 4.395 
*END

*D_NET *163 0.00150351
*CONN
*I *845:A1 I *D sky130_fd_sc_hd__mux2_1
*I *841:A0 I *D sky130_fd_sc_hd__mux2_1
*I *935:Q O *D sky130_fd_sc_hd__dfxtp_2
*CAP
1 *845:A1 0.000318444
2 *841:A0 0.000135393
3 *935:Q 0.000210585
4 *163:10 0.000664422
5 *841:A1 *841:A0 4.89295e-05
6 *845:A0 *845:A1 0
7 *845:S *845:A1 3.95724e-05
8 *933:CLK *841:A0 8.61608e-05
9 *935:D *845:A1 0
10 *935:D *163:10 0
*RES
1 *935:Q *163:10 5.955 
2 *163:10 *841:A0 5.43 
3 *163:10 *845:A1 8.535 
*END

*D_NET *164 0.00107994
*CONN
*I *848:A1 I *D sky130_fd_sc_hd__mux2_1
*I *844:A0 I *D sky130_fd_sc_hd__mux2_1
*I *936:Q O *D sky130_fd_sc_hd__dfxtp_2
*CAP
1 *848:A1 0.000134729
2 *844:A0 0.000248621
3 *936:Q 3.81081e-05
4 *164:8 0.000421458
5 *844:A1 *844:A0 4.82863e-05
6 *844:S *844:A0 1.34594e-05
7 *845:A0 *844:A0 0
8 *848:S *844:A0 0
9 *848:S *848:A1 1.83847e-05
10 *848:S *164:8 0
11 *935:CLK *844:A0 5.39961e-05
12 *935:CLK *164:8 7.23602e-05
13 *954:A *844:A0 3.05373e-05
*RES
1 *936:Q *164:8 4.47 
2 *164:8 *844:A0 7.815 
3 *164:8 *848:A1 5.085 
*END

*D_NET *165 0.00121899
*CONN
*I *851:A1 I *D sky130_fd_sc_hd__mux2_1
*I *847:A0 I *D sky130_fd_sc_hd__mux2_1
*I *937:Q O *D sky130_fd_sc_hd__dfxtp_2
*CAP
1 *851:A1 8.54882e-05
2 *847:A0 0.000309776
3 *937:Q 5.82289e-05
4 *165:8 0.000453493
5 *847:A1 *847:A0 4.66108e-05
6 *847:S *847:A0 8.40269e-05
7 *851:A0 *851:A1 0.00012398
8 *851:A0 *165:8 3.72081e-05
9 *851:S *851:A1 2.01737e-05
10 *148:108 *847:A0 0
*RES
1 *937:Q *165:8 4.725 
2 *165:8 *847:A0 8.775 
3 *165:8 *851:A1 5.43 
*END

*D_NET *166 0.000984998
*CONN
*I *854:A1 I *D sky130_fd_sc_hd__mux2_1
*I *850:A0 I *D sky130_fd_sc_hd__mux2_1
*I *938:Q O *D sky130_fd_sc_hd__dfxtp_2
*CAP
1 *854:A1 0.000112026
2 *850:A0 4.0563e-05
3 *938:Q 0.000197766
4 *166:8 0.000350354
5 *82:29 *854:A1 0
6 *82:37 *850:A0 7.1624e-05
7 *82:37 *854:A1 0.000199229
8 *104:16 *854:A1 1.34361e-05
*RES
1 *938:Q *166:8 5.775 
2 *166:8 *850:A0 4.47 
3 *166:8 *854:A1 6.255 
*END

*D_NET *167 0.00154464
*CONN
*I *857:B2 I *D sky130_fd_sc_hd__a32o_2
*I *853:A0 I *D sky130_fd_sc_hd__mux2_1
*I *939:Q O *D sky130_fd_sc_hd__dfxtp_2
*CAP
1 *857:B2 0
2 *853:A0 0.00017416
3 *939:Q 0.000243003
4 *167:12 0.000417163
5 *856:A2 *853:A0 3.76625e-05
6 *857:B1 *853:A0 0.000178314
7 *858:B *167:12 0
8 *4:18 *167:12 0.000173569
9 *82:29 *853:A0 0
10 *104:10 *853:A0 6.55406e-05
11 *104:16 *853:A0 1.70935e-05
12 *148:30 *853:A0 0
13 *148:30 *167:12 0.000238137
*RES
1 *939:Q *167:12 11.045 
2 *167:12 *853:A0 9.53 
3 *167:12 *857:B2 1.6 
*END

*D_NET *168 0.00183786
*CONN
*I *859:A1 I *D sky130_fd_sc_hd__a21o_2
*I *857:A1 I *D sky130_fd_sc_hd__a32o_2
*I *940:Q O *D sky130_fd_sc_hd__dfxtp_2
*CAP
1 *859:A1 0.000124199
2 *857:A1 0.000202868
3 *940:Q 9.8686e-05
4 *168:8 0.000425753
5 *857:A2 *857:A1 0.000355889
6 *858:A *857:A1 0
7 *859:A2 *857:A1 6.5525e-05
8 *859:A2 *859:A1 9.86611e-05
9 *859:B1 *859:A1 2.75229e-05
10 *940:D *859:A1 3.39151e-05
11 *950:A *857:A1 0
12 *100:10 *857:A1 0.000355896
13 *121:16 *857:A1 5.12017e-06
14 *146:14 *168:8 4.38278e-05
15 *150:32 *857:A1 0
16 *150:32 *859:A1 0
*RES
1 *940:Q *168:8 4.74 
2 *168:8 *857:A1 9.825 
3 *168:8 *859:A1 6.195 
*END
