*SPEF "ieee 1481-1999"
*DESIGN "alu8"
*DATE "17:10:29 Wednesday September 16, 2026"
*VENDOR "The OpenROAD Project"
*PROGRAM "OpenROAD"
*VERSION "dcf36133a369abc8f3c5e5738cd4d82e4903c0e0"
*DESIGN_FLOW "NAME_SCOPE LOCAL" "PIN_CAP NONE"
*DIVIDER /
*DELIMITER :
*BUS_DELIMITER []
*T_UNIT 1 NS
*C_UNIT 1 PF
*R_UNIT 1 OHM
*L_UNIT 1 HENRY

*NAME_MAP
*1 A[0]
*2 A[1]
*3 A[2]
*4 A[3]
*5 A[4]
*6 A[5]
*7 A[6]
*8 A[7]
*9 B[0]
*10 B[1]
*11 B[2]
*12 B[3]
*13 B[4]
*14 B[5]
*15 B[6]
*16 B[7]
*17 CARRY
*18 OP[0]
*19 OP[1]
*20 OP[2]
*23 Y[0]
*24 Y[1]
*25 Y[2]
*26 Y[3]
*27 Y[4]
*28 Y[5]
*29 Y[6]
*30 Y[7]
*31 _000_
*32 _001_
*33 _002_
*34 _003_
*35 _004_
*36 _005_
*37 _006_
*38 _007_
*39 _008_
*40 _009_
*41 _010_
*42 _011_
*43 _012_
*44 _013_
*45 _014_
*46 _015_
*47 _016_
*48 _017_
*49 _018_
*50 _019_
*51 _020_
*52 _021_
*53 _022_
*54 _023_
*55 _024_
*56 _025_
*57 _026_
*58 _027_
*59 _028_
*60 _029_
*61 _030_
*62 _031_
*63 _032_
*64 _033_
*65 _034_
*66 _035_
*67 _036_
*68 _037_
*69 _038_
*70 _039_
*71 _040_
*72 _041_
*73 _042_
*74 _043_
*75 _044_
*76 _045_
*77 _046_
*78 _047_
*79 _048_
*80 _049_
*81 _050_
*82 _051_
*83 _052_
*84 _053_
*85 _054_
*86 _055_
*87 _056_
*88 _057_
*89 _058_
*90 _059_
*91 _060_
*92 _061_
*93 _062_
*94 _063_
*95 _064_
*96 _065_
*97 _066_
*98 _067_
*99 _068_
*100 _069_
*101 _070_
*102 _071_
*103 _072_
*104 _073_
*105 _074_
*106 _075_
*107 _076_
*108 _077_
*109 _078_
*110 _079_
*111 _080_
*112 _081_
*113 _082_
*114 _083_
*115 _084_
*116 _085_
*117 _086_
*118 _087_
*119 _088_
*120 _089_
*121 _090_
*122 _091_
*123 _092_
*124 _093_
*125 _094_
*126 _095_
*127 _096_
*128 _097_
*129 _098_
*130 _099_
*131 _100_
*132 _101_
*133 _102_
*134 _103_
*135 _104_
*136 _105_
*137 _106_
*138 _107_
*139 _108_
*140 _109_
*141 _110_
*142 _111_
*143 _112_
*144 _113_
*145 _114_
*146 _115_
*147 _116_
*148 _117_
*149 _118_
*150 _119_
*151 _120_
*152 _121_
*153 _122_
*154 _123_
*155 net1
*156 net10
*157 net11
*158 net12
*159 net13
*160 net14
*161 net15
*162 net16
*163 net17
*164 net18
*165 net19
*166 net2
*167 net20
*168 net21
*169 net22
*170 net23
*171 net24
*172 net25
*173 net26
*174 net27
*175 net28
*176 net29
*177 net3
*178 net30
*179 net31
*180 net32
*181 net33
*182 net34
*183 net4
*184 net5
*185 net6
*186 net7
*187 net8
*188 net9
*189 FILLER_0_100
*190 FILLER_0_103
*191 FILLER_0_106
*192 FILLER_0_109
*193 FILLER_0_113
*194 FILLER_0_27
*195 FILLER_0_3
*196 FILLER_0_34
*197 FILLER_0_37
*198 FILLER_0_47
*199 FILLER_0_50
*200 FILLER_0_53
*201 FILLER_0_57
*202 FILLER_0_6
*203 FILLER_0_75
*204 FILLER_0_78
*205 FILLER_0_81
*206 FILLER_0_85
*207 FILLER_0_88
*208 FILLER_0_9
*209 FILLER_0_91
*210 FILLER_0_94
*211 FILLER_0_97
*212 FILLER_10_108
*213 FILLER_10_111
*214 FILLER_10_3
*215 FILLER_10_45
*216 FILLER_10_48
*217 FILLER_10_56
*218 FILLER_10_59
*219 FILLER_10_75
*220 FILLER_10_85
*221 FILLER_10_88
*222 FILLER_10_91
*223 FILLER_10_94
*224 FILLER_11_103
*225 FILLER_11_113
*226 FILLER_11_23
*227 FILLER_11_40
*228 FILLER_11_44
*229 FILLER_11_47
*230 FILLER_11_57
*231 FILLER_11_60
*232 FILLER_11_63
*233 FILLER_11_72
*234 FILLER_11_75
*235 FILLER_11_84
*236 FILLER_11_87
*237 FILLER_11_90
*238 FILLER_11_93
*239 FILLER_12_103
*240 FILLER_12_18
*241 FILLER_12_21
*242 FILLER_12_24
*243 FILLER_12_27
*244 FILLER_12_29
*245 FILLER_12_3
*246 FILLER_12_34
*247 FILLER_12_37
*248 FILLER_12_40
*249 FILLER_12_43
*250 FILLER_12_63
*251 FILLER_12_66
*252 FILLER_12_69
*253 FILLER_12_78
*254 FILLER_12_81
*255 FILLER_12_85
*256 FILLER_13_113
*257 FILLER_13_17
*258 FILLER_13_20
*259 FILLER_13_29
*260 FILLER_13_32
*261 FILLER_13_35
*262 FILLER_13_38
*263 FILLER_13_41
*264 FILLER_13_44
*265 FILLER_13_47
*266 FILLER_13_50
*267 FILLER_13_53
*268 FILLER_13_57
*269 FILLER_13_60
*270 FILLER_13_63
*271 FILLER_13_66
*272 FILLER_13_69
*273 FILLER_13_72
*274 FILLER_13_75
*275 FILLER_13_78
*276 FILLER_13_81
*277 FILLER_13_94
*278 FILLER_14_109
*279 FILLER_14_112
*280 FILLER_14_18
*281 FILLER_14_29
*282 FILLER_14_46
*283 FILLER_14_49
*284 FILLER_14_60
*285 FILLER_14_63
*286 FILLER_14_66
*287 FILLER_14_69
*288 FILLER_14_72
*289 FILLER_14_75
*290 FILLER_14_78
*291 FILLER_14_81
*292 FILLER_14_85
*293 FILLER_14_88
*294 FILLER_14_91
*295 FILLER_15_102
*296 FILLER_15_113
*297 FILLER_15_15
*298 FILLER_15_21
*299 FILLER_15_24
*300 FILLER_15_27
*301 FILLER_15_3
*302 FILLER_15_30
*303 FILLER_15_38
*304 FILLER_15_41
*305 FILLER_15_44
*306 FILLER_15_47
*307 FILLER_15_65
*308 FILLER_15_68
*309 FILLER_15_71
*310 FILLER_15_79
*311 FILLER_15_82
*312 FILLER_15_85
*313 FILLER_15_88
*314 FILLER_15_91
*315 FILLER_15_99
*316 FILLER_16_102
*317 FILLER_16_11
*318 FILLER_16_110
*319 FILLER_16_113
*320 FILLER_16_29
*321 FILLER_16_40
*322 FILLER_16_43
*323 FILLER_16_46
*324 FILLER_16_73
*325 FILLER_16_83
*326 FILLER_16_85
*327 FILLER_16_88
*328 FILLER_17_100
*329 FILLER_17_106
*330 FILLER_17_109
*331 FILLER_17_113
*332 FILLER_17_13
*333 FILLER_17_40
*334 FILLER_17_49
*335 FILLER_17_64
*336 FILLER_17_67
*337 FILLER_17_70
*338 FILLER_17_73
*339 FILLER_17_88
*340 FILLER_17_94
*341 FILLER_17_97
*342 FILLER_18_100
*343 FILLER_18_103
*344 FILLER_18_106
*345 FILLER_18_109
*346 FILLER_18_113
*347 FILLER_18_12
*348 FILLER_18_15
*349 FILLER_18_18
*350 FILLER_18_21
*351 FILLER_18_24
*352 FILLER_18_27
*353 FILLER_18_29
*354 FILLER_18_3
*355 FILLER_18_32
*356 FILLER_18_37
*357 FILLER_18_40
*358 FILLER_18_43
*359 FILLER_18_46
*360 FILLER_18_6
*361 FILLER_18_65
*362 FILLER_18_68
*363 FILLER_18_71
*364 FILLER_18_74
*365 FILLER_18_83
*366 FILLER_18_85
*367 FILLER_18_88
*368 FILLER_18_9
*369 FILLER_18_91
*370 FILLER_18_94
*371 FILLER_18_97
*372 FILLER_1_101
*373 FILLER_1_104
*374 FILLER_1_107
*375 FILLER_1_110
*376 FILLER_1_113
*377 FILLER_1_3
*378 FILLER_1_37
*379 FILLER_1_40
*380 FILLER_1_43
*381 FILLER_1_46
*382 FILLER_1_49
*383 FILLER_1_6
*384 FILLER_1_77
*385 FILLER_1_87
*386 FILLER_1_9
*387 FILLER_1_95
*388 FILLER_1_98
*389 FILLER_2_102
*390 FILLER_2_105
*391 FILLER_2_108
*392 FILLER_2_111
*393 FILLER_2_21
*394 FILLER_2_26
*395 FILLER_2_3
*396 FILLER_2_36
*397 FILLER_2_39
*398 FILLER_2_42
*399 FILLER_2_45
*400 FILLER_2_48
*401 FILLER_2_6
*402 FILLER_2_70
*403 FILLER_2_81
*404 FILLER_2_90
*405 FILLER_2_99
*406 FILLER_3_101
*407 FILLER_3_104
*408 FILLER_3_107
*409 FILLER_3_110
*410 FILLER_3_113
*411 FILLER_3_20
*412 FILLER_3_23
*413 FILLER_3_3
*414 FILLER_3_40
*415 FILLER_3_43
*416 FILLER_3_46
*417 FILLER_3_57
*418 FILLER_3_69
*419 FILLER_3_72
*420 FILLER_3_75
*421 FILLER_3_91
*422 FILLER_3_98
*423 FILLER_4_11
*424 FILLER_4_14
*425 FILLER_4_17
*426 FILLER_4_39
*427 FILLER_4_42
*428 FILLER_4_49
*429 FILLER_4_52
*430 FILLER_4_66
*431 FILLER_4_69
*432 FILLER_4_72
*433 FILLER_4_75
*434 FILLER_4_78
*435 FILLER_4_81
*436 FILLER_4_85
*437 FILLER_4_88
*438 FILLER_4_91
*439 FILLER_4_97
*440 FILLER_5_102
*441 FILLER_5_113
*442 FILLER_5_21
*443 FILLER_5_24
*444 FILLER_5_27
*445 FILLER_5_37
*446 FILLER_5_40
*447 FILLER_5_43
*448 FILLER_5_46
*449 FILLER_5_49
*450 FILLER_5_57
*451 FILLER_5_68
*452 FILLER_5_71
*453 FILLER_5_74
*454 FILLER_5_77
*455 FILLER_5_83
*456 FILLER_6_29
*457 FILLER_6_32
*458 FILLER_6_35
*459 FILLER_6_38
*460 FILLER_6_41
*461 FILLER_6_44
*462 FILLER_6_53
*463 FILLER_6_56
*464 FILLER_6_64
*465 FILLER_6_67
*466 FILLER_6_70
*467 FILLER_6_73
*468 FILLER_6_81
*469 FILLER_6_85
*470 FILLER_6_88
*471 FILLER_6_91
*472 FILLER_7_107
*473 FILLER_7_110
*474 FILLER_7_113
*475 FILLER_7_29
*476 FILLER_7_3
*477 FILLER_7_32
*478 FILLER_7_35
*479 FILLER_7_44
*480 FILLER_7_57
*481 FILLER_7_6
*482 FILLER_7_60
*483 FILLER_7_63
*484 FILLER_7_66
*485 FILLER_7_69
*486 FILLER_7_72
*487 FILLER_7_80
*488 FILLER_7_83
*489 FILLER_7_86
*490 FILLER_7_89
*491 FILLER_7_92
*492 FILLER_7_95
*493 FILLER_7_98
*494 FILLER_8_105
*495 FILLER_8_22
*496 FILLER_8_25
*497 FILLER_8_29
*498 FILLER_8_3
*499 FILLER_8_32
*500 FILLER_8_35
*501 FILLER_8_38
*502 FILLER_8_41
*503 FILLER_8_44
*504 FILLER_8_47
*505 FILLER_8_50
*506 FILLER_8_6
*507 FILLER_8_62
*508 FILLER_8_65
*509 FILLER_8_80
*510 FILLER_8_83
*511 FILLER_8_85
*512 FILLER_8_88
*513 FILLER_8_91
*514 FILLER_9_103
*515 FILLER_9_113
*516 FILLER_9_19
*517 FILLER_9_22
*518 FILLER_9_25
*519 FILLER_9_28
*520 FILLER_9_37
*521 FILLER_9_40
*522 FILLER_9_43
*523 FILLER_9_46
*524 FILLER_9_49
*525 FILLER_9_52
*526 FILLER_9_55
*527 FILLER_9_57
*528 FILLER_9_60
*529 FILLER_9_63
*530 FILLER_9_84
*531 FILLER_9_87
*532 PHY_EDGE_ROW_0_Left_19
*533 PHY_EDGE_ROW_0_Right_0
*534 PHY_EDGE_ROW_10_Left_29
*535 PHY_EDGE_ROW_10_Right_10
*536 PHY_EDGE_ROW_11_Left_30
*537 PHY_EDGE_ROW_11_Right_11
*538 PHY_EDGE_ROW_12_Left_31
*539 PHY_EDGE_ROW_12_Right_12
*540 PHY_EDGE_ROW_13_Left_32
*541 PHY_EDGE_ROW_13_Right_13
*542 PHY_EDGE_ROW_14_Left_33
*543 PHY_EDGE_ROW_14_Right_14
*544 PHY_EDGE_ROW_15_Left_34
*545 PHY_EDGE_ROW_15_Right_15
*546 PHY_EDGE_ROW_16_Left_35
*547 PHY_EDGE_ROW_16_Right_16
*548 PHY_EDGE_ROW_17_Left_36
*549 PHY_EDGE_ROW_17_Right_17
*550 PHY_EDGE_ROW_18_Left_37
*551 PHY_EDGE_ROW_18_Right_18
*552 PHY_EDGE_ROW_1_Left_20
*553 PHY_EDGE_ROW_1_Right_1
*554 PHY_EDGE_ROW_2_Left_21
*555 PHY_EDGE_ROW_2_Right_2
*556 PHY_EDGE_ROW_3_Left_22
*557 PHY_EDGE_ROW_3_Right_3
*558 PHY_EDGE_ROW_4_Left_23
*559 PHY_EDGE_ROW_4_Right_4
*560 PHY_EDGE_ROW_5_Left_24
*561 PHY_EDGE_ROW_5_Right_5
*562 PHY_EDGE_ROW_6_Left_25
*563 PHY_EDGE_ROW_6_Right_6
*564 PHY_EDGE_ROW_7_Left_26
*565 PHY_EDGE_ROW_7_Right_7
*566 PHY_EDGE_ROW_8_Left_27
*567 PHY_EDGE_ROW_8_Right_8
*568 PHY_EDGE_ROW_9_Left_28
*569 PHY_EDGE_ROW_9_Right_9
*570 TAP_TAPCELL_ROW_0_38
*571 TAP_TAPCELL_ROW_0_39
*572 TAP_TAPCELL_ROW_0_40
*573 TAP_TAPCELL_ROW_0_41
*574 TAP_TAPCELL_ROW_10_60
*575 TAP_TAPCELL_ROW_10_61
*576 TAP_TAPCELL_ROW_11_62
*577 TAP_TAPCELL_ROW_11_63
*578 TAP_TAPCELL_ROW_12_64
*579 TAP_TAPCELL_ROW_12_65
*580 TAP_TAPCELL_ROW_13_66
*581 TAP_TAPCELL_ROW_13_67
*582 TAP_TAPCELL_ROW_14_68
*583 TAP_TAPCELL_ROW_14_69
*584 TAP_TAPCELL_ROW_15_70
*585 TAP_TAPCELL_ROW_15_71
*586 TAP_TAPCELL_ROW_16_72
*587 TAP_TAPCELL_ROW_16_73
*588 TAP_TAPCELL_ROW_17_74
*589 TAP_TAPCELL_ROW_17_75
*590 TAP_TAPCELL_ROW_18_76
*591 TAP_TAPCELL_ROW_18_77
*592 TAP_TAPCELL_ROW_18_78
*593 TAP_TAPCELL_ROW_18_79
*594 TAP_TAPCELL_ROW_1_42
*595 TAP_TAPCELL_ROW_1_43
*596 TAP_TAPCELL_ROW_2_44
*597 TAP_TAPCELL_ROW_2_45
*598 TAP_TAPCELL_ROW_3_46
*599 TAP_TAPCELL_ROW_3_47
*600 TAP_TAPCELL_ROW_4_48
*601 TAP_TAPCELL_ROW_4_49
*602 TAP_TAPCELL_ROW_5_50
*603 TAP_TAPCELL_ROW_5_51
*604 TAP_TAPCELL_ROW_6_52
*605 TAP_TAPCELL_ROW_6_53
*606 TAP_TAPCELL_ROW_7_54
*607 TAP_TAPCELL_ROW_7_55
*608 TAP_TAPCELL_ROW_8_56
*609 TAP_TAPCELL_ROW_8_57
*610 TAP_TAPCELL_ROW_9_58
*611 TAP_TAPCELL_ROW_9_59
*612 _124_
*613 _125_
*614 _126_
*615 _127_
*616 _128_
*617 _129_
*618 _130_
*619 _131_
*620 _132_
*621 _133_
*622 _134_
*623 _135_
*624 _136_
*625 _137_
*626 _138_
*627 _139_
*628 _140_
*629 _141_
*630 _142_
*631 _143_
*632 _144_
*633 _145_
*634 _146_
*635 _147_
*636 _148_
*637 _149_
*638 _150_
*639 _151_
*640 _152_
*641 _153_
*642 _154_
*643 _155_
*644 _156_
*645 _157_
*646 _158_
*647 _159_
*648 _160_
*649 _161_
*650 _162_
*651 _163_
*652 _164_
*653 _165_
*654 _166_
*655 _167_
*656 _168_
*657 _169_
*658 _170_
*659 _171_
*660 _172_
*661 _173_
*662 _174_
*663 _175_
*664 _176_
*665 _177_
*666 _178_
*667 _179_
*668 _180_
*669 _181_
*670 _182_
*671 _183_
*672 _184_
*673 _185_
*674 _186_
*675 _187_
*676 _188_
*677 _189_
*678 _190_
*679 _191_
*680 _192_
*681 _193_
*682 _194_
*683 _195_
*684 _196_
*685 _197_
*686 _198_
*687 _199_
*688 _200_
*689 _201_
*690 _202_
*691 _203_
*692 _204_
*693 _205_
*694 _206_
*695 _207_
*696 _208_
*697 _209_
*698 _210_
*699 _211_
*700 _212_
*701 _213_
*702 _214_
*703 _215_
*704 _216_
*705 _217_
*706 _218_
*707 _219_
*708 _220_
*709 _221_
*710 _222_
*711 _223_
*712 _224_
*713 _225_
*714 _226_
*715 _227_
*716 _228_
*717 _229_
*718 _230_
*719 _231_
*720 _232_
*721 _233_
*722 _234_
*723 _235_
*724 _236_
*725 _237_
*726 _238_
*727 _239_
*728 _240_
*729 _241_
*730 _242_
*731 _243_
*732 _244_
*733 _245_
*734 _246_
*735 _247_
*736 _248_
*737 _249_
*738 _250_
*739 _251_
*740 _252_
*741 _253_
*742 _254_
*743 _255_
*744 _256_
*745 fanout33
*746 fanout34
*747 input1
*748 input10
*749 input11
*750 input12
*751 input13
*752 input14
*753 input15
*754 input16
*755 input17
*756 input18
*757 input19
*758 input2
*759 input3
*760 input4
*761 input5
*762 input6
*763 input7
*764 input8
*765 input9
*766 max_cap29
*767 max_cap30
*768 max_cap32
*769 output20
*770 output21
*771 output22
*772 output23
*773 output24
*774 output25
*775 output26
*776 output27
*777 output28
*778 wire31

*PORTS
A[0] I
A[1] I
A[2] I
A[3] I
A[4] I
A[5] I
A[6] I
A[7] I
B[0] I
B[1] I
B[2] I
B[3] I
B[4] I
B[5] I
B[6] I
B[7] I
CARRY O
OP[0] I
OP[1] I
OP[2] I
Y[0] O
Y[1] O
Y[2] O
Y[3] O
Y[4] O
Y[5] O
Y[6] O
Y[7] O

*D_NET *1 0.00190205
*CONN
*P A[0] I
*I *747:A I *D sky130_fd_sc_hd__clkdlybuf4s25_1
*CAP
1 A[0] 0.000530698
2 *747:A 0.000530698
3 *747:A Y[0] 0.000358997
4 *747:A *613:A0 0
5 *747:A *614:A1 1.12643e-05
6 *747:A *614:A2 7.47964e-05
7 *747:A *614:B1 4.77769e-05
8 *747:A *614:C1 4.89395e-05
9 *747:A *765:A 0.000298881
*RES
1 A[0] *747:A 12.2701 
*END

*D_NET *2 0.00140328
*CONN
*P A[1] I
*I *758:A I *D sky130_fd_sc_hd__clkdlybuf4s25_1
*CAP
1 A[1] 0.000468125
2 *758:A 0.000468125
3 *758:A *748:A 0.000467034
*RES
1 A[1] *758:A 14.43 
*END

*D_NET *3 0.00108391
*CONN
*P A[2] I
*I *759:A I *D sky130_fd_sc_hd__clkdlybuf4s25_1
*CAP
1 A[2] 0.000541955
2 *759:A 0.000541955
*RES
1 A[2] *759:A 13.05 
*END

*D_NET *4 0.00078604
*CONN
*P A[3] I
*I *760:A I *D sky130_fd_sc_hd__clkdlybuf4s25_1
*CAP
1 A[3] 0.00029275
2 *760:A 0.00029275
3 *760:A Y[3] 0.000200539
*RES
1 A[3] *760:A 5.76463 
*END

*D_NET *5 0.000897749
*CONN
*P A[4] I
*I *761:A I *D sky130_fd_sc_hd__clkdlybuf4s25_1
*CAP
1 A[4] 0.000448875
2 *761:A 0.000448875
3 *761:A Y[4] 0
4 *761:A *750:A 0
*RES
1 A[4] *761:A 6.78463 
*END

*D_NET *6 0.000773605
*CONN
*P A[5] I
*I *762:A I *D sky130_fd_sc_hd__clkdlybuf4s25_1
*CAP
1 A[5] 0.000287063
2 *762:A 0.000287063
3 *762:A Y[5] 0.000199479
4 *762:A *751:A 0
5 *762:A *123:12 0
*RES
1 A[5] *762:A 5.76463 
*END

*D_NET *7 0.0014362
*CONN
*P A[6] I
*I *763:A I *D sky130_fd_sc_hd__clkdlybuf4s25_1
*CAP
1 A[6] 0.000676936
2 *763:A 0.000676936
3 *763:A *753:A 4.99619e-05
4 *763:A *186:10 3.23663e-05
*RES
1 A[6] *763:A 15.8775 
*END

*D_NET *8 0.000839977
*CONN
*P A[7] I
*I *764:A I *D sky130_fd_sc_hd__clkdlybuf4s25_1
*CAP
1 A[7] 0.000325532
2 *764:A 0.000325532
3 *764:A *754:A 0.000188914
*RES
1 A[7] *764:A 7.83877 
*END

*D_NET *9 0.00147794
*CONN
*P B[0] I
*I *765:A I *D sky130_fd_sc_hd__clkdlybuf4s25_1
*CAP
1 B[0] 0.000528863
2 *765:A 0.000528863
3 *765:A Y[0] 8.73132e-06
4 *765:A Y[1] 0
5 *765:A *613:A0 6.1138e-05
6 *765:A *614:A1 5.14672e-05
7 *747:A *765:A 0.000298881
*RES
1 B[0] *765:A 6.19277 
*END

*D_NET *10 0.00122229
*CONN
*P B[1] I
*I *748:A I *D sky130_fd_sc_hd__clkdlybuf4s25_1
*CAP
1 B[1] 0.000368438
2 *748:A 0.000368438
3 *748:A *166:12 1.83847e-05
4 *758:A *748:A 0.000467034
*RES
1 B[1] *748:A 13.05 
*END

*D_NET *11 0.00106905
*CONN
*P B[2] I
*I *749:A I *D sky130_fd_sc_hd__clkdlybuf4s25_1
*CAP
1 B[2] 0.000529774
2 *749:A 0.000529774
3 *749:A Y[2] 0
4 *749:A *772:A 9.50342e-06
*RES
1 B[2] *749:A 13.155 
*END

*D_NET *12 0.000803653
*CONN
*P B[3] I
*I *750:A I *D sky130_fd_sc_hd__clkdlybuf4s25_1
*CAP
1 B[3] 0.00031011
2 *750:A 0.00031011
3 *750:A Y[3] 0.000183433
4 *761:A *750:A 0
*RES
1 B[3] *750:A 5.76463 
*END

*D_NET *13 0.00099755
*CONN
*P B[4] I
*I *751:A I *D sky130_fd_sc_hd__clkdlybuf4s25_1
*CAP
1 B[4] 0.000498775
2 *751:A 0.000498775
3 *751:A Y[4] 0
4 *751:A Y[5] 0
5 *751:A *184:23 0
6 *762:A *751:A 0
*RES
1 B[4] *751:A 7.15617 
*END

*D_NET *14 0.000877673
*CONN
*P B[5] I
*I *752:A I *D sky130_fd_sc_hd__clkdlybuf4s25_1
*CAP
1 B[5] 0.000438836
2 *752:A 0.000438836
3 *752:A Y[5] 0
4 *752:A *160:14 0
*RES
1 B[5] *752:A 6.13617 
*END

*D_NET *15 0.00153726
*CONN
*P B[6] I
*I *753:A I *D sky130_fd_sc_hd__clkdlybuf4s25_1
*CAP
1 B[6] 0.000706856
2 *753:A 0.000706856
3 *753:A *186:10 7.35813e-05
4 *763:A *753:A 4.99619e-05
*RES
1 B[6] *753:A 16.4625 
*END

*D_NET *16 0.00133409
*CONN
*P B[7] I
*I *754:A I *D sky130_fd_sc_hd__clkdlybuf4s25_1
*CAP
1 B[7] 0.000502627
2 *754:A 0.000502627
3 *754:A CARRY 0
4 *754:A *744:B2 0
5 *754:A *769:A 0.000139924
6 *754:A *162:8 0
7 *764:A *754:A 0.000188914
*RES
1 B[7] *754:A 8.78663 
*END

*D_NET *17 0.00117728
*CONN
*P CARRY O
*I *769:X O *D sky130_fd_sc_hd__dlymetal6s2s_1
*CAP
1 CARRY 0.000520602
2 *769:X 0.000520602
3 CARRY *769:A 0.000136079
4 CARRY *778:A 0
5 *754:A CARRY 0
*RES
1 *769:X CARRY 7.94143 
*END

*D_NET *18 0.00155502
*CONN
*P OP[0] I
*I *755:A I *D sky130_fd_sc_hd__clkdlybuf4s25_1
*CAP
1 OP[0] 0.000535483
2 *755:A 0.000535483
3 *755:A *744:B2 0
4 *755:A *756:A 4.78735e-05
5 *755:A *757:A 0.000278748
6 *755:A *89:12 5.92849e-05
7 *755:A *141:8 0
8 *755:A *165:20 9.8153e-05
*RES
1 OP[0] *755:A 11.0816 
*END

*D_NET *19 0.00114809
*CONN
*P OP[1] I
*I *756:A I *D sky130_fd_sc_hd__clkdlybuf4s25_1
*CAP
1 OP[1] 0.000486824
2 *756:A 0.000486824
3 *756:A *757:A 0.00012657
4 *755:A *756:A 4.78735e-05
*RES
1 OP[1] *756:A 12.1092 
*END

*D_NET *20 0.00152801
*CONN
*P OP[2] I
*I *757:A I *D sky130_fd_sc_hd__clkdlybuf4s25_1
*CAP
1 OP[2] 0.000561344
2 *757:A 0.000561344
3 *757:A *614:B1 0
4 *755:A *757:A 0.000278748
5 *756:A *757:A 0.00012657
*RES
1 OP[2] *757:A 10.0668 
*END

*D_NET *23 0.000962726
*CONN
*P Y[0] O
*I *770:X O *D sky130_fd_sc_hd__clkdlybuf4s25_1
*CAP
1 Y[0] 0.000297499
2 *770:X 0.000297499
3 Y[0] *613:A0 0
4 *747:A Y[0] 0.000358997
5 *765:A Y[0] 8.73132e-06
*RES
1 *770:X Y[0] 6.11837 
*END

*D_NET *24 0.000701992
*CONN
*P Y[1] O
*I *771:X O *D sky130_fd_sc_hd__clkdlybuf4s25_1
*CAP
1 Y[1] 0.000350996
2 *771:X 0.000350996
3 *765:A Y[1] 0
*RES
1 *771:X Y[1] 9.04917 
*END

*D_NET *25 0.0010487
*CONN
*P Y[2] O
*I *772:X O *D sky130_fd_sc_hd__clkdlybuf4s25_1
*CAP
1 Y[2] 0.000524351
2 *772:X 0.000524351
3 *749:A Y[2] 0
*RES
1 *772:X Y[2] 12.54 
*END

*D_NET *26 0.000872463
*CONN
*P Y[3] O
*I *773:X O *D sky130_fd_sc_hd__clkdlybuf4s25_1
*CAP
1 Y[3] 0.000244245
2 *773:X 0.000244245
3 *750:A Y[3] 0.000183433
4 *760:A Y[3] 0.000200539
*RES
1 *773:X Y[3] 5.37117 
*END

*D_NET *27 0.000792052
*CONN
*P Y[4] O
*I *774:X O *D sky130_fd_sc_hd__clkdlybuf4s25_1
*CAP
1 Y[4] 0.000396026
2 *774:X 0.000396026
3 Y[4] *184:10 0
4 *751:A Y[4] 0
5 *761:A Y[4] 0
*RES
1 *774:X Y[4] 5.37117 
*END

*D_NET *28 0.000824648
*CONN
*P Y[5] O
*I *775:X O *D sky130_fd_sc_hd__clkdlybuf4s25_1
*CAP
1 Y[5] 0.000312585
2 *775:X 0.000312585
3 Y[5] *185:59 0
4 *751:A Y[5] 0
5 *752:A Y[5] 0
6 *762:A Y[5] 0.000199479
*RES
1 *775:X Y[5] 5.37117 
*END

*D_NET *29 0.00123984
*CONN
*P Y[6] O
*I *776:X O *D sky130_fd_sc_hd__clkdlybuf4s25_1
*CAP
1 Y[6] 0.000619919
2 *776:X 0.000619919
*RES
1 *776:X Y[6] 14.3175 
*END

*D_NET *30 0.00155034
*CONN
*P Y[7] O
*I *777:X O *D sky130_fd_sc_hd__clkbuf_2
*CAP
1 Y[7] 0.00077517
2 *777:X 0.00077517
*RES
1 *777:X Y[7] 16.6425 
*END

*D_NET *31 0.00673557
*CONN
*I *663:B I *D sky130_fd_sc_hd__nor2_2
*I *636:B I *D sky130_fd_sc_hd__nor2_2
*I *627:B I *D sky130_fd_sc_hd__nor2_2
*I *626:A I *D sky130_fd_sc_hd__inv_2
*I *625:X O *D sky130_fd_sc_hd__or3b_2
*CAP
1 *663:B 0
2 *636:B 0
3 *627:B 0.00052781
4 *626:A 0
5 *625:X 0.000288131
6 *31:31 0.00117994
7 *31:23 0.000887986
8 *31:8 0.000523987
9 *627:B *619:B2 9.70713e-05
10 *627:B *629:A2_N 0
11 *627:B *629:B1 0.000243279
12 *627:B *637:A1 0.000471735
13 *627:B *637:A2 0
14 *627:B *638:A2 0.000357005
15 *627:B *638:B1 9.30717e-05
16 *627:B *638:C1 0
17 *627:B *640:B1 8.40269e-05
18 *627:B *707:A_N 6.02791e-05
19 *627:B *712:B 1.73964e-05
20 *627:B *109:22 0
21 *627:B *111:14 2.34423e-05
22 *627:B *166:68 6.6532e-05
23 *627:B *177:41 0.000158297
24 *31:8 *625:C_N 5.06989e-05
25 *31:8 *768:A 2.49909e-05
26 *31:8 *32:8 8.52883e-05
27 *31:8 *180:20 1.16854e-05
28 *31:8 *180:56 2.59037e-05
29 *31:23 *657:A2 2.7441e-05
30 *31:23 *665:B1 3.00381e-05
31 *31:23 *666:B2 0.000203491
32 *31:23 *666:C1 7.29049e-05
33 *31:23 *149:10 4.39656e-05
34 *31:23 *149:76 3.03775e-05
35 *31:23 *151:74 0
36 *31:23 *180:56 0.000116908
37 *31:31 *637:A2 0.000215315
38 *31:31 *638:B2 0
39 *31:31 *648:B2 0
40 *31:31 *657:A2 9.27255e-06
41 *31:31 *663:A 2.37911e-05
42 *31:31 *665:B1 1.61831e-05
43 *31:31 *666:B2 0
44 *31:31 *712:B 4.18603e-06
45 *31:31 *146:76 0.000213207
46 *31:31 *151:40 0.000449932
*RES
1 *625:X *31:8 5.425 
2 *31:8 *626:A 1.6 
3 *31:8 *31:23 10.06 
4 *31:23 *31:31 15.59 
5 *31:31 *627:B 20.35 
6 *31:31 *636:B 3.6 
7 *31:23 *663:B 1.6 
*END

*D_NET *32 0.00529385
*CONN
*I *683:B1 I *D sky130_fd_sc_hd__a2bb2o_2
*I *677:A2 I *D sky130_fd_sc_hd__a211o_2
*I *656:B1 I *D sky130_fd_sc_hd__a22o_2
*I *626:Y O *D sky130_fd_sc_hd__inv_2
*CAP
1 *683:B1 0.000317555
2 *677:A2 0.000388133
3 *656:B1 1.17428e-05
4 *626:Y 1.82245e-05
5 *32:16 0.00156122
6 *32:8 0.00149713
7 *656:B1 *176:35 1.88602e-05
8 *677:A2 *670:B 0
9 *677:A2 *677:B1 4.40899e-05
10 *677:A2 *677:C1 0
11 *677:A2 *738:A1 0
12 *677:A2 *740:A3 0.000129742
13 *677:A2 *96:10 0
14 *677:A2 *137:10 0.000503111
15 *677:A2 *176:35 0.000267357
16 *683:B1 *666:B2 0
17 *683:B1 *675:A1 8.40213e-05
18 *683:B1 *682:B1 0.000138016
19 *683:B1 *683:A2_N 9.80032e-06
20 *683:B1 *683:B2 7.00889e-06
21 *683:B1 *151:74 0.000106655
22 *683:B1 *176:14 5.02217e-05
23 *32:8 *180:56 3.51072e-05
24 *32:16 *151:74 2.05641e-05
25 *31:8 *32:8 8.52883e-05
*RES
1 *626:Y *32:8 4.395 
2 *32:8 *32:16 2.96023 
3 *32:16 *656:B1 3.8325 
4 *32:16 *677:A2 13.5225 
5 *32:8 *683:B1 9.855 
*END

*D_NET *33 0.000758853
*CONN
*I *628:C1 I *D sky130_fd_sc_hd__a221o_2
*I *627:Y O *D sky130_fd_sc_hd__nor2_2
*CAP
1 *628:C1 0.000166777
2 *627:Y 0.000166777
3 *628:C1 *619:B2 0
4 *628:C1 *628:B2 8.34348e-05
5 *628:C1 *632:A1 0.000134575
6 *628:C1 *707:A_N 4.99619e-05
7 *628:C1 *142:12 0.000157326
*RES
1 *627:Y *628:C1 11.325 
*END

*D_NET *34 0.000891917
*CONN
*I *632:A1 I *D sky130_fd_sc_hd__o22a_2
*I *628:X O *D sky130_fd_sc_hd__a221o_2
*CAP
1 *632:A1 0.000328252
2 *628:X 0.000328252
3 *632:A1 *628:A1 2.49909e-05
4 *632:A1 *628:A2 2.58736e-05
5 *632:A1 *628:B2 8.34281e-06
6 *632:A1 *632:B1 0
7 *632:A1 *154:12 2.88598e-05
8 *632:A1 *154:23 1.27714e-05
9 *628:C1 *632:A1 0.000134575
*RES
1 *628:X *632:A1 11.7 
*END

*D_NET *35 0.000356497
*CONN
*I *630:C1 I *D sky130_fd_sc_hd__a2111o_2
*I *629:X O *D sky130_fd_sc_hd__a2bb2o_2
*CAP
1 *630:C1 0.00013487
2 *629:X 0.00013487
3 *630:C1 *637:A1 1.22544e-05
4 *630:C1 *155:44 4.91189e-05
5 *630:C1 *166:68 2.53841e-05
*RES
1 *629:X *630:C1 9.375 
*END

*D_NET *36 0.000297944
*CONN
*I *632:A2 I *D sky130_fd_sc_hd__o22a_2
*I *630:X O *D sky130_fd_sc_hd__a2111o_2
*CAP
1 *632:A2 6.99389e-05
2 *630:X 6.99389e-05
3 *632:A2 *632:B2 0.000121437
4 *632:A2 *142:25 3.66286e-05
*RES
1 *630:X *632:A2 4.685 
*END

*D_NET *37 0.000468336
*CONN
*I *632:B1 I *D sky130_fd_sc_hd__o22a_2
*I *631:X O *D sky130_fd_sc_hd__xor2_2
*CAP
1 *632:B1 0.000160871
2 *631:X 0.000160871
3 *632:B1 *619:B2 0.000101214
4 *632:B1 *732:B 4.53798e-05
5 *632:A1 *632:B1 0
*RES
1 *631:X *632:B1 10.485 
*END

*D_NET *38 0.000519257
*CONN
*I *640:A2 I *D sky130_fd_sc_hd__o22a_2
*I *633:Y O *D sky130_fd_sc_hd__xnor2_2
*CAP
1 *640:A2 7.69637e-05
2 *633:Y 7.69637e-05
3 *640:A2 *640:B2 5.30673e-05
4 *640:A2 *772:A 4.01778e-05
5 *640:A2 *108:8 0.000272085
*RES
1 *633:Y *640:A2 5.72 
*END

*D_NET *39 0.000665965
*CONN
*I *639:A2 I *D sky130_fd_sc_hd__a211o_2
*I *634:X O *D sky130_fd_sc_hd__o21a_2
*CAP
1 *639:A2 0.0002293
2 *634:X 0.0002293
3 *639:A2 *639:B1 4.18603e-06
4 *639:A2 *772:A 0
5 *639:A2 *108:12 0
6 *639:A2 *113:8 0.000203178
*RES
1 *634:X *639:A2 10.41 
*END

*D_NET *40 0.000217099
*CONN
*I *637:C1 I *D sky130_fd_sc_hd__a221o_2
*I *635:Y O *D sky130_fd_sc_hd__nor2_2
*CAP
1 *637:C1 5.53619e-05
2 *635:Y 5.53619e-05
3 *637:C1 *637:B1 4.19797e-05
4 *637:C1 *110:26 5.53249e-06
5 *637:C1 *148:27 5.88634e-05
*RES
1 *635:Y *637:C1 8.58 
*END

*D_NET *41 0.000480816
*CONN
*I *638:C1 I *D sky130_fd_sc_hd__a221o_2
*I *636:Y O *D sky130_fd_sc_hd__nor2_2
*CAP
1 *638:C1 8.21744e-05
2 *636:Y 8.21744e-05
3 *638:C1 *638:B2 7.36484e-05
4 *638:C1 *647:A1 8.40213e-05
5 *638:C1 *712:B 0.000112123
6 *638:C1 *111:8 4.66742e-05
7 *627:B *638:C1 0
*RES
1 *636:Y *638:C1 9.63 
*END

*D_NET *42 0.00121195
*CONN
*I *640:B1 I *D sky130_fd_sc_hd__o22a_2
*I *637:X O *D sky130_fd_sc_hd__a221o_2
*CAP
1 *640:B1 0.000379109
2 *637:X 0.000379109
3 *640:B1 *638:A2 0.00015285
4 *640:B1 *109:22 0.000134509
5 *640:B1 *133:14 8.23457e-05
6 *627:B *640:B1 8.40269e-05
*RES
1 *637:X *640:B1 12.735 
*END

*D_NET *43 0.00128738
*CONN
*I *639:B1 I *D sky130_fd_sc_hd__a211o_2
*I *638:X O *D sky130_fd_sc_hd__a221o_2
*CAP
1 *639:B1 0.000408062
2 *638:X 0.000408062
3 *639:B1 *639:C1 0
4 *639:B1 *640:A1 0
5 *639:B1 *641:B 0.000113237
6 *639:B1 *133:14 0.000353831
7 *639:A2 *639:B1 4.18603e-06
*RES
1 *638:X *639:B1 13.08 
*END

*D_NET *44 0.00050221
*CONN
*I *640:B2 I *D sky130_fd_sc_hd__o22a_2
*I *639:X O *D sky130_fd_sc_hd__a211o_2
*CAP
1 *640:B2 0.000170584
2 *639:X 0.000170584
3 *640:B2 *772:A 1.08758e-05
4 *640:B2 *108:8 9.70988e-05
5 *640:A2 *640:B2 5.30673e-05
*RES
1 *639:X *640:B2 6.425 
*END

*D_NET *45 0.00068648
*CONN
*I *651:A2_N I *D sky130_fd_sc_hd__o2bb2a_2
*I *641:Y O *D sky130_fd_sc_hd__xnor2_2
*CAP
1 *651:A2_N 0.000216845
2 *641:Y 0.000216845
3 *651:A2_N *639:C1 0
4 *651:A2_N *641:A 3.00381e-05
5 *651:A2_N *130:17 0.000130408
6 *651:A2_N *130:21 6.55328e-05
7 *651:A2_N *176:54 2.68111e-05
*RES
1 *641:Y *651:A2_N 11.835 
*END

*D_NET *46 0.00094506
*CONN
*I *650:A2 I *D sky130_fd_sc_hd__a31o_2
*I *642:X O *D sky130_fd_sc_hd__or2_2
*CAP
1 *650:A2 0.000158984
2 *642:X 0.000158984
3 *650:A2 *701:A_N 6.38012e-05
4 *650:A2 *703:A_N 0
5 *650:A2 *716:C1 5.21046e-05
6 *650:A2 *115:8 0.000375723
7 *650:A2 *183:12 0.000135464
*RES
1 *642:X *650:A2 12.09 
*END

*D_NET *47 0.000557949
*CONN
*I *650:A3 I *D sky130_fd_sc_hd__a31o_2
*I *643:Y O *D sky130_fd_sc_hd__nand2_2
*CAP
1 *650:A3 6.65492e-05
2 *643:Y 6.65492e-05
3 *650:A3 *731:B 0.000132827
4 *650:A3 *773:A 4.66108e-05
5 *650:A3 *115:8 0.000178775
6 *650:A3 *130:17 2.0027e-05
7 *650:A3 *183:22 4.66108e-05
*RES
1 *643:Y *650:A3 9.795 
*END

*D_NET *48 0.000390502
*CONN
*I *647:B2 I *D sky130_fd_sc_hd__a221o_2
*I *644:X O *D sky130_fd_sc_hd__or2_2
*CAP
1 *647:B2 0.000112201
2 *644:X 0.000112201
3 *647:B2 *644:B 5.26831e-05
4 *647:B2 *646:C 1.79098e-05
5 *647:B2 *647:A2 6.03947e-06
6 *647:B2 *647:B1 2.98644e-05
7 *647:B2 *650:B1 4.77769e-05
8 *647:B2 *183:30 1.18271e-05
*RES
1 *644:X *647:B2 9.39375 
*END

*D_NET *49 0.000459942
*CONN
*I *647:C1 I *D sky130_fd_sc_hd__a221o_2
*I *645:Y O *D sky130_fd_sc_hd__nor2_2
*CAP
1 *647:C1 9.50026e-05
2 *645:Y 9.50026e-05
3 *647:C1 *647:A2 0.000158556
4 *647:C1 *183:30 0.00011138
*RES
1 *645:Y *647:C1 5.75 
*END

*D_NET *50 0.00126753
*CONN
*I *649:C_N I *D sky130_fd_sc_hd__or3b_2
*I *646:X O *D sky130_fd_sc_hd__or3_2
*CAP
1 *649:C_N 0.000167493
2 *646:X 0.000167493
3 *649:C_N *628:A2 0.000114016
4 *649:C_N *646:B 9.12494e-06
5 *649:C_N *646:C 0.000344363
6 *649:C_N *649:A 0.000345502
7 *649:C_N *650:B1 3.33763e-05
8 *649:C_N *148:23 8.61608e-05
*RES
1 *646:X *649:C_N 13.17 
*END

*D_NET *51 0.00142924
*CONN
*I *651:B1 I *D sky130_fd_sc_hd__o2bb2a_2
*I *647:X O *D sky130_fd_sc_hd__a221o_2
*CAP
1 *651:B1 0.000384528
2 *647:X 0.000384528
3 *651:B1 *639:C1 4.90291e-05
4 *651:B1 *183:22 4.04857e-05
5 *651:B1 *183:26 0.000570668
*RES
1 *647:X *651:B1 10.565 
*END

*D_NET *52 0.000149399
*CONN
*I *649:B I *D sky130_fd_sc_hd__or3b_2
*I *648:X O *D sky130_fd_sc_hd__a32o_2
*CAP
1 *649:B 3.88874e-05
2 *648:X 3.88874e-05
3 *649:B *149:12 7.1624e-05
*RES
1 *648:X *649:B 8.07 
*END

*D_NET *53 0.00408704
*CONN
*I *650:B1 I *D sky130_fd_sc_hd__a31o_2
*I *649:X O *D sky130_fd_sc_hd__or3b_2
*CAP
1 *650:B1 0.00135403
2 *649:X 0.00135403
3 *650:B1 *644:B 4.77807e-05
4 *650:B1 *646:C 7.6299e-05
5 *650:B1 *650:A1 9.10613e-05
6 *650:B1 *701:A_N 6.91333e-05
7 *650:B1 *730:A 0.000493981
8 *650:B1 *735:A1 0.000476831
9 *650:B1 *130:6 3.69049e-05
10 *650:B1 *158:18 5.83121e-06
11 *647:B2 *650:B1 4.77769e-05
12 *649:C_N *650:B1 3.33763e-05
*RES
1 *649:X *650:B1 27 
*END

*D_NET *54 0.000544437
*CONN
*I *651:B2 I *D sky130_fd_sc_hd__o2bb2a_2
*I *650:X O *D sky130_fd_sc_hd__a31o_2
*CAP
1 *651:B2 0.000160222
2 *650:X 0.000160222
3 *651:B2 *639:C1 5.09431e-05
4 *651:B2 *651:A1_N 4.27109e-05
5 *651:B2 *183:22 0.000130339
*RES
1 *650:X *651:B2 6.065 
*END

*D_NET *55 0.000445565
*CONN
*I *653:B I *D sky130_fd_sc_hd__and3b_2
*I *652:Y O *D sky130_fd_sc_hd__nand2_2
*CAP
1 *653:B 7.32337e-05
2 *652:Y 7.32337e-05
3 *653:B *650:A1 0.000118527
4 *653:B *723:C_N 4.77769e-05
5 *653:B *122:10 0.000132794
*RES
1 *652:Y *653:B 9.375 
*END

*D_NET *56 0.00294769
*CONN
*I *660:A1 I *D sky130_fd_sc_hd__o41a_2
*I *653:X O *D sky130_fd_sc_hd__and3b_2
*CAP
1 *660:A1 0.000534189
2 *653:X 0.000534189
3 *660:A1 *653:C 1.42681e-05
4 *660:A1 *719:A 5.43722e-05
5 *660:A1 *736:A 0.000392136
6 *660:A1 *736:B 4.82919e-05
7 *660:A1 *774:A 0.00101464
8 *660:A1 *119:63 3.66286e-05
9 *660:A1 *120:8 4.08514e-05
10 *660:A1 *184:59 0.000278127
*RES
1 *653:X *660:A1 17.51 
*END

*D_NET *57 0.000258283
*CONN
*I *660:A2 I *D sky130_fd_sc_hd__o41a_2
*I *654:X O *D sky130_fd_sc_hd__and2b_2
*CAP
1 *660:A2 7.66818e-05
2 *654:X 7.66818e-05
3 *660:A2 *654:B 3.25591e-05
4 *660:A2 *660:A3 7.23602e-05
5 *660:A2 *184:59 0
*RES
1 *654:X *660:A2 8.52 
*END

*D_NET *58 0.000862945
*CONN
*I *660:A3 I *D sky130_fd_sc_hd__o41a_2
*I *655:X O *D sky130_fd_sc_hd__a2bb2o_2
*CAP
1 *660:A3 0.000307566
2 *655:X 0.000307566
3 *660:A3 *654:B 7.18383e-05
4 *660:A3 *658:A 0
5 *660:A3 *659:B1 2.93136e-05
6 *660:A3 *660:B1 3.86607e-05
7 *660:A3 *184:59 3.56402e-05
8 *660:A2 *660:A3 7.23602e-05
*RES
1 *655:X *660:A3 11.865 
*END

*D_NET *59 0.000509506
*CONN
*I *657:B1 I *D sky130_fd_sc_hd__a211o_2
*I *656:X O *D sky130_fd_sc_hd__a22o_2
*CAP
1 *657:B1 0.00016651
2 *656:X 0.00016651
3 *657:B1 *656:A1 2.65814e-06
4 *657:B1 *656:A2 2.92e-05
5 *657:B1 *657:A1 0
6 *657:B1 *657:C1 0.000139238
7 *657:B1 *665:A1 5.3895e-06
8 *657:B1 *146:76 0
*RES
1 *656:X *657:B1 9.975 
*END

*D_NET *60 0.000551587
*CONN
*I *660:A4 I *D sky130_fd_sc_hd__o41a_2
*I *657:X O *D sky130_fd_sc_hd__a211o_2
*CAP
1 *660:A4 0.000224586
2 *657:X 0.000224586
3 *660:A4 *657:A1 1.61831e-05
4 *660:A4 *657:A2 5.30673e-05
5 *660:A4 *660:B1 9.50342e-06
6 *660:A4 *663:A 2.36616e-05
7 *660:A4 *720:B 0
8 *660:A4 *146:76 0
*RES
1 *657:X *660:A4 10.41 
*END

*D_NET *61 0.000235921
*CONN
*I *659:A2 I *D sky130_fd_sc_hd__a21o_2
*I *658:X O *D sky130_fd_sc_hd__or2_2
*CAP
1 *659:A2 6.09526e-05
2 *658:X 6.09526e-05
3 *659:A2 *134:21 0.000114016
*RES
1 *658:X *659:A2 8.58 
*END

*D_NET *62 0.000606004
*CONN
*I *660:B1 I *D sky130_fd_sc_hd__o41a_2
*I *659:X O *D sky130_fd_sc_hd__a21o_2
*CAP
1 *660:B1 0.000231576
2 *659:X 0.000231576
3 *660:B1 *654:A_N 5.05437e-05
4 *660:B1 *659:B1 4.41432e-05
5 *660:B1 *720:B 0
6 *660:B1 *184:59 0
7 *660:A3 *660:B1 3.86607e-05
8 *660:A4 *660:B1 9.50342e-06
*RES
1 *659:X *660:B1 10.665 
*END

*D_NET *63 0.000312443
*CONN
*I *669:A2 I *D sky130_fd_sc_hd__a31o_2
*I *661:X O *D sky130_fd_sc_hd__or2_2
*CAP
1 *669:A2 0.000104451
2 *661:X 0.000104451
3 *669:A2 *661:A 7.69055e-05
4 *669:A2 *669:A1 2.66362e-05
*RES
1 *661:X *669:A2 5.045 
*END

*D_NET *64 0.000462004
*CONN
*I *669:A3 I *D sky130_fd_sc_hd__a31o_2
*I *662:Y O *D sky130_fd_sc_hd__nand2_2
*CAP
1 *669:A3 8.66583e-05
2 *662:Y 8.66583e-05
3 *669:A3 *662:A 4.99619e-05
4 *669:A3 *669:A1 9.52156e-05
5 *669:A3 *99:12 1.26626e-05
6 *669:A3 *99:14 8.25609e-05
7 *669:A3 *185:16 4.82863e-05
*RES
1 *662:Y *669:A3 9.795 
*END

*D_NET *65 0.00043108
*CONN
*I *665:B1 I *D sky130_fd_sc_hd__a211o_2
*I *663:Y O *D sky130_fd_sc_hd__nor2_2
*CAP
1 *665:B1 0.000129485
2 *663:Y 0.000129485
3 *665:B1 *657:A2 9.67735e-05
4 *665:B1 *665:A2 2.04009e-05
5 *665:B1 *665:C1 8.7152e-06
6 *665:B1 *666:B2 0
7 *665:B1 *146:76 0
8 *665:B1 *149:84 0
9 *31:23 *665:B1 3.00381e-05
10 *31:31 *665:B1 1.61831e-05
*RES
1 *663:Y *665:B1 9.885 
*END

*D_NET *66 0.000201455
*CONN
*I *665:C1 I *D sky130_fd_sc_hd__a211o_2
*I *664:X O *D sky130_fd_sc_hd__a2bb2o_2
*CAP
1 *665:C1 7.57494e-05
2 *664:X 7.57494e-05
3 *665:C1 *666:A1 0
4 *665:C1 *146:76 4.12408e-05
5 *665:C1 *149:84 0
6 *665:B1 *665:C1 8.7152e-06
*RES
1 *664:X *665:C1 8.58 
*END

*D_NET *67 0.00052895
*CONN
*I *666:C1 I *D sky130_fd_sc_hd__a221o_2
*I *665:X O *D sky130_fd_sc_hd__a211o_2
*CAP
1 *666:C1 0.000208765
2 *665:X 0.000208765
3 *666:C1 *151:84 2.97802e-05
4 *666:C1 *180:56 8.73389e-06
5 *31:23 *666:C1 7.29049e-05
*RES
1 *665:X *666:C1 10.065 
*END

*D_NET *68 0.00311636
*CONN
*I *668:B1 I *D sky130_fd_sc_hd__a41o_2
*I *666:X O *D sky130_fd_sc_hd__a221o_2
*CAP
1 *668:B1 0.000897183
2 *666:X 0.000897183
3 *668:B1 *662:A 0.000161529
4 *668:B1 *662:B 0.000163204
5 *668:B1 *666:A1 3.26889e-05
6 *668:B1 *675:A2 0.00012657
7 *668:B1 *675:B2 3.45438e-05
8 *668:B1 *738:A2 8.43946e-05
9 *668:B1 *738:C1 0.000160635
10 *668:B1 *185:16 0.000496143
11 *668:B1 *185:22 6.22889e-05
*RES
1 *666:X *668:B1 19.445 
*END

*D_NET *69 0.000888192
*CONN
*I *668:A4 I *D sky130_fd_sc_hd__a41o_2
*I *667:X O *D sky130_fd_sc_hd__a211o_2
*CAP
1 *668:A4 0.000170601
2 *667:X 0.000170601
3 *668:A4 *667:A1 9.54469e-05
4 *668:A4 *98:10 4.65565e-05
5 *668:A4 *123:12 0.000119756
6 *668:A4 *123:25 4.60584e-05
7 *668:A4 *179:60 3.09164e-05
8 *668:A4 *179:62 0.000159964
9 *668:A4 *184:23 4.82919e-05
*RES
1 *667:X *668:A4 11.625 
*END

*D_NET *70 0.000704693
*CONN
*I *669:B1 I *D sky130_fd_sc_hd__a31o_2
*I *668:X O *D sky130_fd_sc_hd__a41o_2
*CAP
1 *669:B1 0.000216489
2 *668:X 0.000216489
3 *669:B1 *661:B 0
4 *669:B1 *669:A1 7.3664e-05
5 *669:B1 *185:16 0.000198051
*RES
1 *668:X *669:B1 10.665 
*END

*D_NET *71 0.000574823
*CONN
*I *678:A2 I *D sky130_fd_sc_hd__o22a_2
*I *670:Y O *D sky130_fd_sc_hd__xnor2_2
*CAP
1 *678:A2 0.000227592
2 *670:Y 0.000227592
3 *678:A2 *672:B1 0
4 *678:A2 *678:A1 0
5 *678:A2 *678:B1 0.00011964
6 *678:A2 *94:35 0
7 *678:A2 *94:52 0
*RES
1 *670:Y *678:A2 10.41 
*END

*D_NET *72 0.000386133
*CONN
*I *672:B1 I *D sky130_fd_sc_hd__a41oi_2
*I *671:Y O *D sky130_fd_sc_hd__nand2_2
*CAP
1 *672:B1 0.000114492
2 *671:Y 0.000114492
3 *672:B1 *671:B 3.64998e-06
4 *672:B1 *678:A1 0
5 *672:B1 *727:B1 9.50342e-06
6 *672:B1 *94:52 0.00013792
7 *672:B1 *179:60 6.07575e-06
8 *678:A2 *672:B1 0
*RES
1 *671:Y *672:B1 9.285 
*END

*D_NET *73 0.000689614
*CONN
*I *678:B1 I *D sky130_fd_sc_hd__o22a_2
*I *672:Y O *D sky130_fd_sc_hd__a41oi_2
*CAP
1 *678:B1 0.000199466
2 *672:Y 0.000199466
3 *678:B1 *678:A1 4.82919e-05
4 *678:B1 *678:B2 3.70488e-05
5 *678:B1 *94:35 8.57024e-05
6 *678:A2 *678:B1 0.00011964
*RES
1 *672:Y *678:B1 7.46 
*END

*D_NET *74 0.000782168
*CONN
*I *674:B1 I *D sky130_fd_sc_hd__o21ai_2
*I *673:Y O *D sky130_fd_sc_hd__nand2b_2
*CAP
1 *674:B1 0.000229849
2 *673:Y 0.000229849
3 *674:B1 *673:B 5.12017e-06
4 *674:B1 *676:A1 0.000137578
5 *674:B1 *676:A2 1.17409e-05
6 *674:B1 *676:B1 7.22354e-05
7 *674:B1 *678:A1 7.23602e-05
8 *674:B1 *679:B 2.34345e-05
9 *674:B1 *93:12 0
10 *674:B1 *186:23 0
*RES
1 *673:Y *674:B1 11.85 
*END

*D_NET *75 0.000357828
*CONN
*I *676:B1 I *D sky130_fd_sc_hd__a211o_2
*I *674:Y O *D sky130_fd_sc_hd__o21ai_2
*CAP
1 *676:B1 5.49101e-05
2 *674:Y 5.49101e-05
3 *676:B1 *674:A2 0
4 *676:B1 *676:A2 1.51429e-05
5 *676:B1 *146:89 0.00016063
6 *674:B1 *676:B1 7.22354e-05
*RES
1 *674:Y *676:B1 5.045 
*END

*D_NET *76 0.000374662
*CONN
*I *676:C1 I *D sky130_fd_sc_hd__a211o_2
*I *675:X O *D sky130_fd_sc_hd__a22o_2
*CAP
1 *676:C1 0.000139536
2 *675:X 0.000139536
3 *676:C1 *664:B2 0
4 *676:C1 *676:A1 4.18603e-06
5 *676:C1 *146:89 9.14049e-05
6 *676:C1 *186:23 0
7 *676:C1 *186:29 0
*RES
1 *675:X *676:C1 9.285 
*END

*D_NET *77 0.000541395
*CONN
*I *677:B1 I *D sky130_fd_sc_hd__a211o_2
*I *676:X O *D sky130_fd_sc_hd__a211o_2
*CAP
1 *677:B1 0.000128566
2 *676:X 0.000128566
3 *677:B1 *677:C1 0.000116165
4 *677:B1 *97:31 0.000124007
5 *677:A2 *677:B1 4.40899e-05
*RES
1 *676:X *677:B1 9.72 
*END

*D_NET *78 0.000501111
*CONN
*I *678:B2 I *D sky130_fd_sc_hd__o22a_2
*I *677:X O *D sky130_fd_sc_hd__a211o_2
*CAP
1 *678:B2 0.00017539
2 *677:X 0.00017539
3 *678:B2 *94:35 0.000113282
4 *678:B1 *678:B2 3.70488e-05
*RES
1 *677:X *678:B2 6.425 
*END

*D_NET *79 0.000216503
*CONN
*I *686:A2 I *D sky130_fd_sc_hd__o22a_2
*I *679:X O *D sky130_fd_sc_hd__xor2_2
*CAP
1 *686:A2 3.93867e-05
2 *679:X 3.93867e-05
3 *686:A2 *686:B2 4.85359e-05
4 *686:A2 *179:45 8.91934e-05
*RES
1 *679:X *686:A2 4.355 
*END

*D_NET *80 0.000595023
*CONN
*I *685:A3 I *D sky130_fd_sc_hd__a31o_2
*I *680:Y O *D sky130_fd_sc_hd__nand3_2
*CAP
1 *685:A3 0.000154406
2 *680:Y 0.000154406
3 *685:A3 *678:A1 1.06688e-05
4 *685:A3 *680:A 3.57349e-05
5 *685:A3 *91:17 0.000239807
*RES
1 *680:Y *685:A3 6.065 
*END

*D_NET *81 0.000326674
*CONN
*I *684:B1 I *D sky130_fd_sc_hd__a211o_2
*I *681:X O *D sky130_fd_sc_hd__and2b_2
*CAP
1 *684:B1 0.000156138
2 *681:X 0.000156138
3 *684:B1 *90:23 0
4 *684:B1 *142:55 0
5 *684:B1 *154:81 1.4399e-05
*RES
1 *681:X *684:B1 9.03 
*END

*D_NET *82 0.00122858
*CONN
*I *686:B1 I *D sky130_fd_sc_hd__o22a_2
*I *682:X O *D sky130_fd_sc_hd__a21o_2
*CAP
1 *686:B1 0.000316055
2 *682:X 0.000316055
3 *686:B1 *676:A2 7.06865e-05
4 *686:B1 *679:B 0.000161893
5 *686:B1 *683:B2 3.84331e-05
6 *686:B1 *729:A2 4.92047e-05
7 *686:B1 *126:45 0.000175109
8 *686:B1 *127:12 6.23541e-06
9 *686:B1 *179:45 9.49063e-05
*RES
1 *682:X *686:B1 14.4 
*END

*D_NET *83 0.000375542
*CONN
*I *684:C1 I *D sky130_fd_sc_hd__a211o_2
*I *683:X O *D sky130_fd_sc_hd__a2bb2o_2
*CAP
1 *684:C1 5.21578e-05
2 *683:X 5.21578e-05
3 *684:C1 *683:A1_N 0
4 *684:C1 *684:A1 4.00541e-06
5 *684:C1 *684:A2 0.000197563
6 *684:C1 *187:47 6.96579e-05
*RES
1 *683:X *684:C1 5.3 
*END

*D_NET *84 0.000447401
*CONN
*I *685:B1 I *D sky130_fd_sc_hd__a31o_2
*I *684:X O *D sky130_fd_sc_hd__a211o_2
*CAP
1 *685:B1 0.000161054
2 *684:X 0.000161054
3 *685:B1 *685:A1 3.25831e-05
4 *685:B1 *685:A2 3.47668e-05
5 *685:B1 *741:A2 9.50342e-06
6 *685:B1 *741:B1 0
7 *685:B1 *90:23 0
8 *685:B1 *91:8 4.84393e-05
9 *685:B1 *91:25 0
*RES
1 *684:X *685:B1 10.365 
*END

*D_NET *85 0.000849109
*CONN
*I *686:B2 I *D sky130_fd_sc_hd__o22a_2
*I *685:X O *D sky130_fd_sc_hd__a31o_2
*CAP
1 *686:B2 0.000205405
2 *685:X 0.000205405
3 *686:B2 *679:B 0.000275226
4 *686:B2 *685:A1 0
5 *686:B2 *686:A1 0
6 *686:B2 *91:17 3.00381e-05
7 *686:B2 *142:55 0
8 *686:B2 *179:10 0
9 *686:B2 *179:45 8.44986e-05
10 *686:A2 *686:B2 4.85359e-05
*RES
1 *685:X *686:B2 12.06 
*END

*D_NET *86 0.000547409
*CONN
*I *667:A1 I *D sky130_fd_sc_hd__a211o_2
*I *687:Y O *D sky130_fd_sc_hd__inv_2
*CAP
1 *667:A1 0.000112614
2 *687:Y 0.000112614
3 *667:A1 *667:B1 1.85674e-05
4 *667:A1 *98:10 9.54469e-05
5 *667:A1 *184:23 8.40269e-05
6 *667:A1 *184:35 2.8694e-05
7 *668:A4 *667:A1 9.54469e-05
*RES
1 *687:Y *667:A1 9.825 
*END

*D_NET *87 0.000483411
*CONN
*I *744:A1 I *D sky130_fd_sc_hd__a32o_2
*I *688:Y O *D sky130_fd_sc_hd__nand2b_2
*CAP
1 *744:A1 9.11045e-05
2 *688:Y 9.11045e-05
3 *744:A1 *688:A_N 4.9253e-06
4 *744:A1 *778:A 6.68849e-05
5 *744:A1 *88:10 0.00011852
6 *744:A1 *162:8 0.000107716
7 *744:A1 *187:34 3.1562e-06
*RES
1 *688:Y *744:A1 9.795 
*END

*D_NET *88 0.010755
*CONN
*I *634:B1 I *D sky130_fd_sc_hd__o21a_2
*I *622:B1 I *D sky130_fd_sc_hd__o21ai_2
*I *778:A I *D sky130_fd_sc_hd__clkbuf_2
*I *744:A2 I *D sky130_fd_sc_hd__a32o_2
*I *689:Y O *D sky130_fd_sc_hd__nor3b_2
*CAP
1 *634:B1 0.00185891
2 *622:B1 0
3 *778:A 0.000288588
4 *744:A2 0
5 *689:Y 0
6 *88:36 0.00262447
7 *88:10 0.00065997
8 *88:4 0.00113694
9 *634:B1 *619:B2 9.10587e-05
10 *634:B1 *623:B1 7.41493e-05
11 *634:B1 *627:A 0.000105002
12 *634:B1 *704:B 1.41186e-05
13 *634:B1 *707:A_N 0.000120655
14 *634:B1 *710:B 0
15 *634:B1 *714:B 0.000227261
16 *634:B1 *734:A1 9.07709e-05
17 *634:B1 *103:10 1.38475e-05
18 *634:B1 *104:8 0
19 *634:B1 *105:10 6.02123e-05
20 *634:B1 *110:26 2.66586e-05
21 *634:B1 *113:8 0.000191243
22 *634:B1 *156:22 0
23 *634:B1 *166:12 1.22676e-05
24 *634:B1 *166:23 0.000198945
25 *634:B1 *166:32 0.000187281
26 *634:B1 *177:14 0.000467074
27 *634:B1 *178:27 0
28 *778:A *679:A 0
29 *778:A *692:A 9.29751e-06
30 *778:A *741:B1 0
31 *778:A *744:B1 7.89767e-05
32 *778:A *162:8 2.46007e-05
33 *88:10 *690:A 7.21296e-06
34 *88:10 *690:B 0.000181376
35 *88:10 *692:A 0.000144113
36 *88:10 *744:B2 0
37 *88:10 *745:A 0
38 *88:10 *141:8 0
39 *88:10 *141:27 0
40 *88:10 *162:8 2.84224e-05
41 *88:10 *162:10 1.73877e-05
42 *88:10 *165:29 0.000124007
43 *88:10 *165:40 1.16578e-05
44 *88:10 *181:10 7.06865e-05
45 *88:10 *187:10 0.000116853
46 *88:36 *613:A1 0
47 *88:36 *614:B1 0
48 *88:36 *619:B2 0.00026668
49 *88:36 *620:C 0.000158552
50 *88:36 *742:B 0
51 *88:36 *745:A 6.10014e-05
52 *88:36 *746:A 0
53 *88:36 *770:A 0.000158559
54 *88:36 *146:8 0.00019824
55 *88:36 *163:10 0
56 *88:36 *165:10 9.54399e-05
57 *88:36 *165:40 0.000110673
58 *88:36 *182:8 0
59 *88:36 *188:40 0.000256422
60 CARRY *778:A 0
61 *744:A1 *778:A 6.68849e-05
62 *744:A1 *88:10 0.00011852
*RES
1 *689:Y *88:4 1.6 
2 *88:4 *88:10 10.64 
3 *88:10 *744:A2 3.6 
4 *88:10 *778:A 9.18 
5 *88:4 *88:36 22.075 
6 *88:36 *622:B1 1.6 
7 *88:36 *634:B1 33.56 
*END

*D_NET *89 0.00218739
*CONN
*I *681:A_N I *D sky130_fd_sc_hd__and2b_2
*I *692:A I *D sky130_fd_sc_hd__nor2_2
*I *690:Y O *D sky130_fd_sc_hd__nor2_2
*CAP
1 *681:A_N 7.64901e-05
2 *692:A 0.000164443
3 *690:Y 0.00021486
4 *89:12 0.000455794
5 *681:A_N *90:10 1.83847e-05
6 *681:A_N *163:10 0.000229825
7 *692:A *744:B1 8.53113e-06
8 *692:A *90:10 9.30787e-05
9 *692:A *90:23 0.000223727
10 *89:12 *691:A 4.82919e-05
11 *89:12 *691:B 4.66108e-05
12 *89:12 *744:B2 0.000141599
13 *89:12 *90:10 1.83756e-05
14 *89:12 *163:10 0.00023468
15 *755:A *89:12 5.92849e-05
16 *778:A *692:A 9.29751e-06
17 *88:10 *692:A 0.000144113
*RES
1 *690:Y *89:12 10.79 
2 *89:12 *692:A 10.04 
3 *89:12 *681:A_N 3.775 
*END

*D_NET *90 0.00170792
*CONN
*I *741:B1 I *D sky130_fd_sc_hd__a21o_2
*I *692:B I *D sky130_fd_sc_hd__nor2_2
*I *684:A1 I *D sky130_fd_sc_hd__a211o_2
*I *691:X O *D sky130_fd_sc_hd__and2_2
*CAP
1 *741:B1 6.16772e-05
2 *692:B 2.2266e-05
3 *684:A1 0.000100351
4 *691:X 0.000125343
5 *90:23 0.000190751
6 *90:10 0.000332502
7 *684:A1 *684:A2 3.95724e-05
8 *684:A1 *187:47 0.000287651
9 *692:B *744:A3 4.82919e-05
10 *741:B1 *744:B1 7.4538e-05
11 *741:B1 *91:8 6.74079e-05
12 *681:A_N *90:10 1.83847e-05
13 *684:B1 *90:23 0
14 *684:C1 *684:A1 4.00541e-06
15 *685:B1 *741:B1 0
16 *685:B1 *90:23 0
17 *692:A *90:10 9.30787e-05
18 *692:A *90:23 0.000223727
19 *778:A *741:B1 0
20 *89:12 *90:10 1.83756e-05
*RES
1 *691:X *90:10 5.52 
2 *90:10 *684:A1 6.48 
3 *90:10 *90:23 2.655 
4 *90:23 *692:B 4.05 
5 *90:23 *741:B1 5.49 
*END

*D_NET *91 0.00270463
*CONN
*I *679:A I *D sky130_fd_sc_hd__xor2_2
*I *680:A I *D sky130_fd_sc_hd__nand3_2
*I *683:B2 I *D sky130_fd_sc_hd__a2bb2o_2
*I *729:B1 I *D sky130_fd_sc_hd__a21o_2
*I *741:A1 I *D sky130_fd_sc_hd__a21o_2
*I *692:Y O *D sky130_fd_sc_hd__nor2_2
*CAP
1 *679:A 0.000116972
2 *680:A 2.19925e-05
3 *683:B2 0.000239327
4 *729:B1 0
5 *741:A1 0
6 *692:Y 3.75186e-05
7 *91:25 0.000400964
8 *91:17 0.000405186
9 *91:10 0.000221557
10 *91:8 0.00015449
11 *679:A *741:A2 0.000170517
12 *679:A *179:10 6.65395e-05
13 *680:A *678:A1 3.64998e-06
14 *683:B2 *675:A1 1.5567e-05
15 *683:B2 *676:A2 7.23602e-05
16 *683:B2 *683:A2_N 4.77719e-05
17 *91:8 *741:A2 3.09164e-05
18 *91:17 *685:A1 2.75229e-05
19 *91:25 *685:A1 0
20 *91:25 *685:A2 0
21 *91:25 *128:6 4.66108e-05
22 *91:25 *142:55 0.000158297
23 *683:B1 *683:B2 7.00889e-06
24 *685:A3 *680:A 3.57349e-05
25 *685:A3 *91:17 0.000239807
26 *685:B1 *91:8 4.84393e-05
27 *685:B1 *91:25 0
28 *686:B1 *683:B2 3.84331e-05
29 *686:B2 *91:17 3.00381e-05
30 *741:B1 *91:8 6.74079e-05
31 *778:A *679:A 0
*RES
1 *692:Y *91:8 4.98 
2 *91:8 *91:10 2 
3 *91:10 *741:A1 1.6 
4 *91:10 *91:17 4.245 
5 *91:17 *91:25 7.03 
6 *91:25 *729:B1 1.6 
7 *91:25 *683:B2 9.68 
8 *91:17 *680:A 2.05 
9 *91:8 *679:A 6.45 
*END

*D_NET *92 0.000972064
*CONN
*I *695:A I *D sky130_fd_sc_hd__nor2_2
*I *673:A_N I *D sky130_fd_sc_hd__nand2b_2
*I *693:Y O *D sky130_fd_sc_hd__nor2_2
*CAP
1 *695:A 0
2 *673:A_N 0.00010823
3 *693:Y 2.88827e-05
4 *92:6 0.000137112
5 *673:A_N *678:A1 0
6 *673:A_N *679:B 0.000201508
7 *673:A_N *93:12 0.000139245
8 *673:A_N *179:45 0.00011964
9 *673:A_N *186:10 9.50342e-06
10 *673:A_N *186:12 0.000203769
11 *673:A_N *186:23 8.53113e-06
12 *92:6 *678:A1 1.56428e-05
*RES
1 *693:Y *92:6 2.05 
2 *92:6 *673:A_N 9.83 
3 *92:6 *695:A 1.6 
*END

*D_NET *93 0.00105647
*CONN
*I *676:A1 I *D sky130_fd_sc_hd__a211o_2
*I *740:B1 I *D sky130_fd_sc_hd__a31o_2
*I *695:B I *D sky130_fd_sc_hd__nor2_2
*I *694:X O *D sky130_fd_sc_hd__and2_2
*CAP
1 *676:A1 8.26824e-05
2 *740:B1 0
3 *695:B 0
4 *694:X 9.63362e-05
5 *93:19 0.000109929
6 *93:12 0.000123583
7 *676:A1 *664:B2 5.56629e-05
8 *676:A1 *673:B 2.42236e-05
9 *676:A1 *740:A1 3.96653e-05
10 *676:A1 *740:A2 6.28498e-05
11 *676:A1 *94:20 4.66742e-05
12 *676:A1 *186:23 0
13 *93:12 *678:A1 1.83847e-05
14 *93:19 *678:A1 3.23663e-05
15 *93:19 *740:A1 5.30673e-05
16 *93:19 *94:20 3.00381e-05
17 *673:A_N *93:12 0.000139245
18 *674:B1 *676:A1 0.000137578
19 *674:B1 *93:12 0
20 *676:C1 *676:A1 4.18603e-06
*RES
1 *694:X *93:12 7.685 
2 *93:12 *695:B 1.6 
3 *93:12 *93:19 1.14 
4 *93:19 *740:B1 1.6 
5 *93:19 *676:A1 8.285 
*END

*D_NET *94 0.00371373
*CONN
*I *672:A1 I *D sky130_fd_sc_hd__a41oi_2
*I *727:B1 I *D sky130_fd_sc_hd__a31o_2
*I *670:A I *D sky130_fd_sc_hd__xnor2_2
*I *677:A1 I *D sky130_fd_sc_hd__a211o_2
*I *740:A1 I *D sky130_fd_sc_hd__a31o_2
*I *695:Y O *D sky130_fd_sc_hd__nor2_2
*CAP
1 *672:A1 3.37454e-05
2 *727:B1 7.12868e-05
3 *670:A 0
4 *677:A1 3.55506e-05
5 *740:A1 0.000115459
6 *695:Y 0.000333996
7 *94:52 0.000425783
8 *94:35 0.000623137
9 *94:20 0.000556473
10 *727:B1 *672:A2 6.55328e-05
11 *727:B1 *123:25 1.01661e-05
12 *94:20 *678:A1 0.000124007
13 *94:20 *679:B 0.000122331
14 *94:20 *740:A3 5.6361e-05
15 *94:35 *670:B 0.000139252
16 *94:35 *678:A1 0.00011686
17 *94:35 *740:A3 2.54431e-05
18 *94:35 *776:A 0
19 *94:52 *672:A2 4.43871e-06
20 *94:52 *678:A1 2.49909e-05
21 *94:52 *126:12 0
22 *94:52 *179:45 0.000274756
23 *94:52 *179:60 3.83041e-05
24 *672:B1 *727:B1 9.50342e-06
25 *672:B1 *94:52 0.00013792
26 *676:A1 *740:A1 3.96653e-05
27 *676:A1 *94:20 4.66742e-05
28 *678:A2 *94:35 0
29 *678:A2 *94:52 0
30 *678:B1 *94:35 8.57024e-05
31 *678:B2 *94:35 0.000113282
32 *93:19 *740:A1 5.30673e-05
33 *93:19 *94:20 3.00381e-05
*RES
1 *695:Y *740:A1 4.685 
2 *695:Y *94:20 5.86 
3 *94:20 *677:A1 2.215 
4 *94:20 *94:35 10.135 
5 *94:35 *670:A 1.6 
6 *94:35 *94:52 8.96 
7 *94:52 *727:B1 5.235 
8 *94:52 *672:A1 4.05 
*END

*D_NET *95 0.00122965
*CONN
*I *699:A I *D sky130_fd_sc_hd__and2_2
*I *697:A I *D sky130_fd_sc_hd__inv_2
*I *700:A I *D sky130_fd_sc_hd__nand2_2
*I *696:Y O *D sky130_fd_sc_hd__nand2_2
*CAP
1 *699:A 2.31723e-05
2 *697:A 0
3 *700:A 2.97151e-05
4 *696:Y 0.000227917
5 *95:29 8.93318e-05
6 *95:16 0.000323791
7 *699:A *775:A 4.66108e-05
8 *700:A *97:8 8.49205e-05
9 *700:A *99:12 2.75229e-05
10 *95:16 *698:A 7.68843e-05
11 *95:16 *97:8 4.66108e-05
12 *95:16 *99:12 5.4155e-06
13 *95:16 *160:14 0
14 *95:29 *122:29 0.000160658
15 *95:29 *123:25 8.71001e-05
*RES
1 *696:Y *95:16 5.41 
2 *95:16 *700:A 2.395 
3 *95:16 *95:29 5.89 
4 *95:29 *697:A 1.6 
5 *95:29 *699:A 2.05 
*END

*D_NET *96 0.00380431
*CONN
*I *738:B1 I *D sky130_fd_sc_hd__a211o_2
*I *665:A1 I *D sky130_fd_sc_hd__a211o_2
*I *697:Y O *D sky130_fd_sc_hd__inv_2
*CAP
1 *738:B1 0
2 *665:A1 0.000718094
3 *697:Y 0.000694812
4 *96:10 0.00141291
5 *665:A1 *656:A1 0.000311288
6 *665:A1 *656:A2 0.000284975
7 *665:A1 *738:A1 6.28843e-05
8 *665:A1 *738:A2 6.28843e-05
9 *96:10 *661:A 0.000200165
10 *96:10 *661:B 0
11 *96:10 *738:A2 1.70935e-05
12 *96:10 *775:A 3.3814e-05
13 *96:10 *137:10 0
14 *657:B1 *665:A1 5.3895e-06
15 *677:A2 *96:10 0
*RES
1 *697:Y *96:10 12.24 
2 *96:10 *665:A1 13.98 
3 *96:10 *738:B1 3.6 
*END

*D_NET *97 0.00430438
*CONN
*I *699:B I *D sky130_fd_sc_hd__and2_2
*I *700:B I *D sky130_fd_sc_hd__nand2_2
*I *740:A2 I *D sky130_fd_sc_hd__a31o_2
*I *664:B2 I *D sky130_fd_sc_hd__a2bb2o_2
*I *739:A I *D sky130_fd_sc_hd__nand2_2
*I *698:X O *D sky130_fd_sc_hd__or2_4
*CAP
1 *699:B 4.07155e-05
2 *700:B 0
3 *740:A2 2.13382e-05
4 *664:B2 0.000219656
5 *739:A 0
6 *698:X 0.000159795
7 *97:31 0.000609897
8 *97:18 0.00089005
9 *97:8 0.000640227
10 *664:B2 *664:B1 0.000139231
11 *664:B2 *673:B 0.000446767
12 *664:B2 *146:89 0.000194165
13 *699:B *179:60 0.000117832
14 *699:B *185:59 4.61744e-05
15 *740:A2 *673:B 7.4027e-05
16 *97:8 *99:12 2.8185e-05
17 *97:18 *670:B 3.00381e-05
18 *97:18 *123:25 0.000103192
19 *97:31 *676:A2 5.83121e-06
20 *97:31 *739:B 0.000163204
21 *676:A1 *664:B2 5.56629e-05
22 *676:A1 *740:A2 6.28498e-05
23 *676:C1 *664:B2 0
24 *677:B1 *97:31 0.000124007
25 *700:A *97:8 8.49205e-05
26 *95:16 *97:8 4.66108e-05
*RES
1 *698:X *97:8 3.79 
2 *97:8 *97:18 12.475 
3 *97:18 *739:A 1.6 
4 *97:18 *97:31 8 
5 *97:31 *664:B2 10.335 
6 *97:31 *740:A2 4.47 
7 *97:8 *700:B 1.6 
8 *698:X *699:B 8.58 
*END

*D_NET *98 0.00116822
*CONN
*I *724:B I *D sky130_fd_sc_hd__or3b_2
*I *722:A I *D sky130_fd_sc_hd__or2_2
*I *699:X O *D sky130_fd_sc_hd__and2_2
*CAP
1 *724:B 0
2 *722:A 0.000136388
3 *699:X 0.000165714
4 *98:10 0.000302102
5 *722:A *723:B 4.12912e-05
6 *722:A *159:18 4.36791e-05
7 *98:10 *687:A 0.000124532
8 *98:10 *123:12 7.21296e-06
9 *98:10 *159:12 4.05358e-05
10 *98:10 *179:60 4.83328e-05
11 *98:10 *179:62 4.40643e-05
12 *98:10 *185:59 7.23602e-05
13 *667:A1 *98:10 9.54469e-05
14 *668:A4 *98:10 4.65565e-05
*RES
1 *699:X *98:10 10.55 
2 *98:10 *722:A 4.165 
3 *98:10 *724:B 1.6 
*END

*D_NET *99 0.00523247
*CONN
*I *661:A I *D sky130_fd_sc_hd__or2_2
*I *662:A I *D sky130_fd_sc_hd__nand2_2
*I *667:B1 I *D sky130_fd_sc_hd__a211o_2
*I *663:A I *D sky130_fd_sc_hd__nor2_2
*I *700:Y O *D sky130_fd_sc_hd__nand2_2
*CAP
1 *661:A 0.000144186
2 *662:A 3.14022e-05
3 *667:B1 9.20993e-05
4 *663:A 0.000846041
5 *700:Y 0.000186532
6 *99:16 0.00105652
7 *99:14 0.000235124
8 *99:12 0.000416062
9 *661:A *669:A1 2.66362e-05
10 *661:A *775:A 5.83121e-06
11 *662:A *185:16 6.40489e-05
12 *663:A *657:A1 0.000239813
13 *663:A *657:A2 0.000149293
14 *663:A *667:C1 1.34361e-05
15 *663:A *669:A1 0
16 *663:A *720:A 0.000427876
17 *663:A *122:10 0
18 *663:A *176:54 0
19 *663:A *184:35 0.000391067
20 *667:B1 *184:35 4.66826e-05
21 *99:12 *123:25 7.44453e-05
22 *99:14 *669:A1 0
23 *99:14 *122:29 0
24 *99:14 *123:25 7.44453e-05
25 *99:16 *669:A1 0
26 *99:16 *122:10 0
27 *660:A4 *663:A 2.36616e-05
28 *667:A1 *667:B1 1.85674e-05
29 *668:B1 *662:A 0.000161529
30 *669:A2 *661:A 7.69055e-05
31 *669:A3 *662:A 4.99619e-05
32 *669:A3 *99:12 1.26626e-05
33 *669:A3 *99:14 8.25609e-05
34 *700:A *99:12 2.75229e-05
35 *31:31 *663:A 2.37911e-05
36 *95:16 *99:12 5.4155e-06
37 *96:10 *661:A 0.000200165
38 *97:8 *99:12 2.8185e-05
*RES
1 *700:Y *99:12 6.735 
2 *99:12 *99:14 2.145 
3 *99:14 *99:16 1.635 
4 *99:16 *663:A 19.575 
5 *99:16 *667:B1 5.1 
6 *99:14 *662:A 5.085 
7 *99:12 *661:A 7.17 
*END

*D_NET *100 0.000344448
*CONN
*I *702:A I *D sky130_fd_sc_hd__inv_2
*I *717:A I *D sky130_fd_sc_hd__nand2_2
*I *701:Y O *D sky130_fd_sc_hd__nand2b_2
*CAP
1 *702:A 0
2 *717:A 2.27958e-05
3 *701:Y 8.28641e-05
4 *100:10 0.00010566
5 *717:A *723:A 4.90227e-05
6 *717:A *731:A 3.33763e-05
7 *100:10 *158:18 5.07293e-05
*RES
1 *701:Y *100:10 7.235 
2 *100:10 *717:A 2.395 
3 *100:10 *702:A 1.6 
*END

*D_NET *101 0.00125622
*CONN
*I *723:A I *D sky130_fd_sc_hd__or3b_2
*I *731:A I *D sky130_fd_sc_hd__nor2_2
*I *702:Y O *D sky130_fd_sc_hd__inv_2
*CAP
1 *723:A 0.00015388
2 *731:A 0.000248195
3 *702:Y 0.000402075
4 *723:A *650:A1 5.62235e-05
5 *723:A *158:18 8.33066e-06
6 *731:A *650:A1 7.05878e-05
7 *731:A *701:A_N 9.12494e-06
8 *731:A *115:8 0.000138106
9 *731:A *116:10 8.41384e-05
10 *731:A *158:18 3.1562e-06
11 *717:A *723:A 4.90227e-05
12 *717:A *731:A 3.33763e-05
*RES
1 *702:Y *731:A 11.355 
2 *702:Y *723:A 9.72 
*END

*D_NET *102 0.00194776
*CONN
*I *731:B I *D sky130_fd_sc_hd__nor2_2
*I *716:C1 I *D sky130_fd_sc_hd__a211o_2
*I *703:X O *D sky130_fd_sc_hd__and2b_2
*CAP
1 *731:B 0.000286857
2 *716:C1 0.000377875
3 *703:X 0.000664731
4 *716:C1 *716:A1 7.62408e-05
5 *716:C1 *716:A2 1.34503e-05
6 *716:C1 *111:35 0
7 *716:C1 *114:10 0
8 *716:C1 *115:8 6.43964e-05
9 *731:B *115:8 8.00811e-05
10 *731:B *130:17 0.000150907
11 *731:B *183:12 4.82919e-05
12 *650:A2 *716:C1 5.21046e-05
13 *650:A3 *731:B 0.000132827
*RES
1 *703:X *716:C1 14.19 
2 *703:X *731:B 12.45 
*END

*D_NET *103 0.00110261
*CONN
*I *629:B2 I *D sky130_fd_sc_hd__a2bb2o_2
*I *733:B1 I *D sky130_fd_sc_hd__a31o_2
*I *704:X O *D sky130_fd_sc_hd__and2_2
*CAP
1 *629:B2 0.000108342
2 *733:B1 2.0929e-05
3 *704:X 0.000187344
4 *103:10 0.000316615
5 *629:B2 *630:B1 0.000180689
6 *733:B1 *630:B1 0.000122797
7 *733:B1 *633:B 0.000122797
8 *103:10 *630:B1 2.92496e-05
9 *634:B1 *103:10 1.38475e-05
*RES
1 *704:X *103:10 6.12 
2 *103:10 *733:B1 4.74 
3 *103:10 *629:B2 5.745 
*END

*D_NET *104 0.00197589
*CONN
*I *628:B2 I *D sky130_fd_sc_hd__a221o_2
*I *733:A3 I *D sky130_fd_sc_hd__a31o_2
*I *705:X O *D sky130_fd_sc_hd__or2_2
*CAP
1 *628:B2 0.000258184
2 *733:A3 1.36534e-05
3 *705:X 0.000171755
4 *104:8 0.000443592
5 *628:B2 *619:B2 0
6 *628:B2 *627:A 0
7 *628:B2 *733:A2 0.000218084
8 *628:B2 *142:12 0.000157326
9 *628:B2 *154:12 2.48591e-05
10 *628:B2 *155:42 4.28943e-05
11 *628:B2 *155:44 0.000279681
12 *733:A3 *630:B1 4.66108e-05
13 *733:A3 *633:B 4.66108e-05
14 *104:8 *627:A 0
15 *104:8 *705:B 7.36562e-05
16 *104:8 *709:B1 0
17 *104:8 *733:A2 5.16348e-05
18 *104:8 *105:10 0
19 *104:8 *156:22 0
20 *104:8 *166:47 5.55694e-05
21 *628:C1 *628:B2 8.34348e-05
22 *632:A1 *628:B2 8.34281e-06
23 *634:B1 *104:8 0
*RES
1 *705:X *104:8 7.02 
2 *104:8 *733:A3 4.05 
3 *104:8 *628:B2 10.32 
*END

*D_NET *105 0.000850955
*CONN
*I *627:A I *D sky130_fd_sc_hd__nor2_2
*I *767:A I *D sky130_fd_sc_hd__clkbuf_2
*I *706:Y O *D sky130_fd_sc_hd__xnor2_2
*CAP
1 *627:A 0.000136903
2 *767:A 0
3 *706:Y 8.46635e-05
4 *105:10 0.000221567
5 *627:A *619:B2 3.45679e-05
6 *627:A *707:A_N 8.65961e-05
7 *105:10 *706:A 3.00381e-05
8 *105:10 *709:B1 9.14049e-05
9 *628:B2 *627:A 0
10 *634:B1 *627:A 0.000105002
11 *634:B1 *105:10 6.02123e-05
12 *104:8 *627:A 0
13 *104:8 *105:10 0
*RES
1 *706:Y *105:10 5.43 
2 *105:10 *767:A 3.6 
3 *105:10 *627:A 6.795 
*END

*D_NET *106 0.000893413
*CONN
*I *622:A2 I *D sky130_fd_sc_hd__o21ai_2
*I *623:A2 I *D sky130_fd_sc_hd__a21oi_2
*I *709:A2 I *D sky130_fd_sc_hd__a21o_2
*I *707:Y O *D sky130_fd_sc_hd__nand2b_2
*CAP
1 *622:A2 1.69128e-05
2 *623:A2 0
3 *709:A2 3.32622e-05
4 *707:Y 7.45461e-05
5 *106:14 0.000107875
6 *106:8 0.000166072
7 *622:A2 *707:A_N 4.82919e-05
8 *709:A2 *709:B1 3.15283e-05
9 *709:A2 *108:8 4.66108e-05
10 *106:8 *707:A_N 0.000122325
11 *106:14 *631:A 3.09164e-05
12 *106:14 *178:27 0.000159957
13 *106:14 *188:40 5.51158e-05
*RES
1 *707:Y *106:8 3.1 
2 *106:8 *106:14 6.145 
3 *106:14 *709:A2 2.41 
4 *106:14 *623:A2 1.6 
5 *106:8 *622:A2 2.05 
*END

*D_NET *107 0.00136359
*CONN
*I *709:B1 I *D sky130_fd_sc_hd__a21o_2
*I *708:X O *D sky130_fd_sc_hd__and2b_2
*CAP
1 *709:B1 0.000290527
2 *708:X 0.000290527
3 *709:B1 *630:B1 0.000234674
4 *709:B1 *709:A1 4.82863e-05
5 *709:B1 *108:8 9.85276e-05
6 *709:B1 *178:6 0.000228149
7 *709:B1 *178:14 4.99619e-05
8 *709:A2 *709:B1 3.15283e-05
9 *104:8 *709:B1 0
10 *105:10 *709:B1 9.14049e-05
*RES
1 *708:X *709:B1 13.965 
*END

*D_NET *108 0.0071129
*CONN
*I *713:A I *D sky130_fd_sc_hd__nand2_2
*I *716:A1 I *D sky130_fd_sc_hd__a211o_2
*I *715:A1 I *D sky130_fd_sc_hd__a21o_2
*I *634:A1 I *D sky130_fd_sc_hd__o21a_2
*I *709:X O *D sky130_fd_sc_hd__a21o_2
*CAP
1 *713:A 0
2 *716:A1 0.00013503
3 *715:A1 8.57963e-05
4 *634:A1 3.14964e-05
5 *709:X 0.000965417
6 *108:12 0.000199943
7 *108:8 0.0011831
8 *634:A1 *111:43 2.78732e-05
9 *715:A1 *113:8 0.000122337
10 *716:A1 *716:A2 0.000269938
11 *716:A1 *111:35 6.55048e-05
12 *108:8 *630:B1 5.62336e-05
13 *108:8 *633:B 0.000828469
14 *108:8 *639:A1 6.47326e-05
15 *108:8 *639:C1 9.66021e-05
16 *108:8 *707:B 0.000274654
17 *108:8 *733:A1 0.000595792
18 *108:8 *111:35 0.00128191
19 *108:8 *178:6 0.000142661
20 *108:8 *178:14 2.75229e-05
21 *108:12 *639:C1 4.43871e-06
22 *108:12 *111:39 2.42236e-05
23 *108:12 *111:43 3.86607e-05
24 *639:A2 *108:12 0
25 *640:A2 *108:8 0.000272085
26 *640:B2 *108:8 9.70988e-05
27 *709:A2 *108:8 4.66108e-05
28 *709:B1 *108:8 9.85276e-05
29 *716:C1 *716:A1 7.62408e-05
*RES
1 *709:X *108:8 29.23 
2 *108:8 *108:12 3.38 
3 *108:12 *634:A1 4.215 
4 *108:12 *715:A1 4.74 
5 *108:8 *716:A1 5.185 
6 *108:8 *713:A 1.6 
*END

*D_NET *109 0.0013191
*CONN
*I *712:A_N I *D sky130_fd_sc_hd__nand2b_2
*I *638:A1 I *D sky130_fd_sc_hd__a221o_2
*I *734:B1 I *D sky130_fd_sc_hd__a21oi_2
*I *710:X O *D sky130_fd_sc_hd__and2_2
*CAP
1 *712:A_N 7.33877e-05
2 *638:A1 0
3 *734:B1 1.23724e-05
4 *710:X 0.000218647
5 *109:22 0.000279662
6 *712:A_N *638:B2 3.94614e-05
7 *712:A_N *640:A1 0
8 *712:A_N *647:A1 5.4003e-05
9 *734:B1 *711:A 8.8266e-05
10 *734:B1 *177:14 5.30673e-05
11 *109:22 *638:B2 1.71013e-05
12 *109:22 *640:A1 0
13 *109:22 *711:A 4.99619e-05
14 *109:22 *772:A 3.67779e-05
15 *109:22 *133:14 0.000261882
16 *627:B *109:22 0
17 *640:B1 *109:22 0.000134509
*RES
1 *710:X *734:B1 3.995 
2 *710:X *109:22 7.98 
3 *109:22 *638:A1 3.6 
4 *109:22 *712:A_N 5.235 
*END

*D_NET *110 0.0023495
*CONN
*I *712:B I *D sky130_fd_sc_hd__nand2b_2
*I *637:B2 I *D sky130_fd_sc_hd__a221o_2
*I *734:A1 I *D sky130_fd_sc_hd__a21oi_2
*I *711:X O *D sky130_fd_sc_hd__or2_2
*CAP
1 *712:B 0.000219593
2 *637:B2 7.02368e-06
3 *734:A1 9.00598e-05
4 *711:X 0.000397903
5 *110:26 0.00053446
6 *637:B2 *629:A2_N 7.66551e-06
7 *637:B2 *637:A1 2.49708e-05
8 *712:B *629:A2_N 0.000124007
9 *712:B *637:A1 5.41418e-05
10 *712:B *637:A2 2.91343e-05
11 *712:B *638:A2 0.000147362
12 *712:B *638:B1 0.000134148
13 *712:B *638:B2 9.3062e-06
14 *734:A1 *711:A 0.000141323
15 *734:A1 *177:14 0.000163204
16 *110:26 *630:B1 0
17 *110:26 *637:B1 8.53113e-06
18 *110:26 *111:14 0
19 *110:26 *177:41 0
20 *627:B *712:B 1.73964e-05
21 *634:B1 *734:A1 9.07709e-05
22 *634:B1 *110:26 2.66586e-05
23 *637:C1 *110:26 5.53249e-06
24 *638:C1 *712:B 0.000112123
25 *31:31 *712:B 4.18603e-06
*RES
1 *711:X *734:A1 6.425 
2 *711:X *110:26 10.325 
3 *110:26 *637:B2 1.84 
4 *110:26 *712:B 11.15 
*END

*D_NET *111 0.00583379
*CONN
*I *636:A I *D sky130_fd_sc_hd__nor2_2
*I *713:B I *D sky130_fd_sc_hd__nand2_2
*I *716:A2 I *D sky130_fd_sc_hd__a211o_2
*I *715:A2 I *D sky130_fd_sc_hd__a21o_2
*I *634:A2 I *D sky130_fd_sc_hd__o21a_2
*I *633:A I *D sky130_fd_sc_hd__xnor2_2
*I *712:Y O *D sky130_fd_sc_hd__nand2b_2
*CAP
1 *636:A 0
2 *713:B 0
3 *716:A2 0.000214051
4 *715:A2 0
5 *634:A2 6.88182e-05
6 *633:A 0
7 *712:Y 6.90793e-05
8 *111:43 0.000152679
9 *111:39 0.00032979
10 *111:35 0.000940274
11 *111:14 0.00109679
12 *111:8 0.000257473
13 *634:A2 *715:B1 4.00541e-06
14 *634:A2 *113:8 7.60965e-05
15 *111:8 *638:B1 9.98772e-05
16 *111:8 *647:A1 9.80943e-06
17 *111:8 *142:25 0.000238919
18 *111:14 *637:A2 0.000157602
19 *111:14 *177:41 0.000307361
20 *111:35 *177:41 1.94892e-05
21 *627:B *111:14 2.34423e-05
22 *634:A1 *111:43 2.78732e-05
23 *638:C1 *111:8 4.66742e-05
24 *716:A1 *716:A2 0.000269938
25 *716:A1 *111:35 6.55048e-05
26 *716:C1 *716:A2 1.34503e-05
27 *716:C1 *111:35 0
28 *108:8 *111:35 0.00128191
29 *108:12 *111:39 2.42236e-05
30 *108:12 *111:43 3.86607e-05
31 *110:26 *111:14 0
*RES
1 *712:Y *111:8 4.135 
2 *111:8 *111:14 8.185 
3 *111:14 *633:A 1.6 
4 *111:14 *111:35 17.89 
5 *111:35 *111:39 2.615 
6 *111:39 *111:43 3.38 
7 *111:43 *634:A2 3.1 
8 *111:43 *715:A2 1.6 
9 *111:39 *716:A2 6.735 
10 *111:35 *713:B 1.6 
11 *111:8 *636:A 1.6 
*END

*D_NET *112 0.000564333
*CONN
*I *639:A1 I *D sky130_fd_sc_hd__a211o_2
*I *713:Y O *D sky130_fd_sc_hd__nand2_2
*CAP
1 *639:A1 0.000167363
2 *713:Y 0.000167363
3 *639:A1 *639:C1 0.000164874
4 *108:8 *639:A1 6.47326e-05
*RES
1 *713:Y *639:A1 6.425 
*END

*D_NET *113 0.00143882
*CONN
*I *716:B1 I *D sky130_fd_sc_hd__a211o_2
*I *715:B1 I *D sky130_fd_sc_hd__a21o_2
*I *714:X O *D sky130_fd_sc_hd__and2b_2
*CAP
1 *716:B1 0.000133346
2 *715:B1 1.90984e-05
3 *714:X 0.000242884
4 *113:8 0.000395328
5 *716:B1 *114:10 5.13029e-05
6 *634:A2 *715:B1 4.00541e-06
7 *634:A2 *113:8 7.60965e-05
8 *634:B1 *113:8 0.000191243
9 *639:A2 *113:8 0.000203178
10 *715:A1 *113:8 0.000122337
*RES
1 *714:X *113:8 7.585 
2 *113:8 *715:B1 1.96 
3 *113:8 *716:B1 7.685 
*END

*D_NET *114 0.00100133
*CONN
*I *643:A I *D sky130_fd_sc_hd__nand2_2
*I *642:A I *D sky130_fd_sc_hd__or2_2
*I *715:X O *D sky130_fd_sc_hd__a21o_2
*CAP
1 *643:A 5.55507e-05
2 *642:A 0
3 *715:X 0.000288714
4 *114:10 0.000344265
5 *643:A *115:8 9.428e-05
6 *643:A *130:17 5.53249e-06
7 *643:A *130:21 8.08439e-05
8 *114:10 *115:8 8.08439e-05
9 *716:B1 *114:10 5.13029e-05
10 *716:C1 *114:10 0
*RES
1 *715:X *114:10 8.325 
2 *114:10 *642:A 3.6 
3 *114:10 *643:A 5.49 
*END

*D_NET *115 0.00222701
*CONN
*I *723:C_N I *D sky130_fd_sc_hd__or3b_2
*I *717:B I *D sky130_fd_sc_hd__nand2_2
*I *716:X O *D sky130_fd_sc_hd__a211o_2
*CAP
1 *723:C_N 9.85574e-05
2 *717:B 2.06182e-05
3 *716:X 0.000290178
4 *115:8 0.000409354
5 *717:B *116:10 4.90291e-05
6 *717:B *158:18 4.90291e-05
7 *723:C_N *650:A1 3.5998e-05
8 *723:C_N *652:B 3.5678e-06
9 *723:C_N *116:10 6.98212e-05
10 *723:C_N *122:10 3.71167e-05
11 *115:8 *650:A1 2.29031e-05
12 *115:8 *701:A_N 5.15415e-05
13 *115:8 *116:10 2.93136e-05
14 *115:8 *130:17 0
15 *643:A *115:8 9.428e-05
16 *650:A2 *115:8 0.000375723
17 *650:A3 *115:8 0.000178775
18 *653:B *723:C_N 4.77769e-05
19 *716:C1 *115:8 6.43964e-05
20 *731:A *115:8 0.000138106
21 *731:B *115:8 8.00811e-05
22 *114:10 *115:8 8.08439e-05
*RES
1 *716:X *115:8 13.395 
2 *115:8 *717:B 4.395 
3 *115:8 *723:C_N 6.045 
*END

*D_NET *116 0.00119112
*CONN
*I *721:A I *D sky130_fd_sc_hd__nor2_2
*I *652:A I *D sky130_fd_sc_hd__nand2_2
*I *717:Y O *D sky130_fd_sc_hd__nand2_2
*CAP
1 *721:A 0.000128991
2 *652:A 0
3 *717:Y 0.00019993
4 *116:10 0.000328921
5 *721:A *652:B 7.71961e-05
6 *721:A *722:B 3.4222e-05
7 *721:A *119:29 7.06865e-05
8 *721:A *119:63 7.06865e-05
9 *721:A *122:10 8.56821e-06
10 *721:A *176:54 0
11 *116:10 *122:10 9.12857e-06
12 *116:10 *158:18 3.04889e-05
13 *717:B *116:10 4.90291e-05
14 *723:C_N *116:10 6.98212e-05
15 *731:A *116:10 8.41384e-05
16 *115:8 *116:10 2.93136e-05
*RES
1 *717:Y *116:10 7.83 
2 *116:10 *652:A 3.6 
3 *116:10 *721:A 6.555 
*END

*D_NET *117 0.00298279
*CONN
*I *656:A1 I *D sky130_fd_sc_hd__a22o_2
*I *738:C1 I *D sky130_fd_sc_hd__a211o_2
*I *737:B1 I *D sky130_fd_sc_hd__a21oi_2
*I *720:A I *D sky130_fd_sc_hd__nor2_2
*I *718:X O *D sky130_fd_sc_hd__and2_2
*CAP
1 *656:A1 0.000165235
2 *738:C1 9.62239e-05
3 *737:B1 2.11983e-05
4 *720:A 0.000121383
5 *718:X 0.000218162
6 *117:35 0.00031389
7 *117:22 0.000170409
8 *656:A1 *656:B2 0.000124895
9 *656:A1 *737:A1 0.000122337
10 *656:A1 *119:81 8.49205e-05
11 *656:A1 *176:50 6.20088e-05
12 *720:A *657:A1 0
13 *720:A *720:B 4.82863e-05
14 *720:A *119:8 8.34281e-06
15 *720:A *184:35 8.8266e-05
16 *720:A *184:45 0.000101031
17 *737:B1 *176:50 4.82919e-05
18 *738:C1 *669:A1 0
19 *738:C1 *738:A2 0.000104064
20 *738:C1 *136:8 0.000116158
21 *738:C1 *185:16 6.52265e-05
22 *117:22 *134:32 0
23 *117:22 *176:54 0
24 *117:35 *669:A1 0
25 *657:B1 *656:A1 2.65814e-06
26 *663:A *720:A 0.000427876
27 *665:A1 *656:A1 0.000311288
28 *668:B1 *738:C1 0.000160635
*RES
1 *718:X *720:A 7.46 
2 *718:X *117:22 4.98 
3 *117:22 *737:B1 4.05 
4 *117:22 *117:35 0.9375 
5 *117:35 *738:C1 6.8475 
6 *117:35 *656:A1 8.19 
*END

*D_NET *118 0.000922974
*CONN
*I *720:B I *D sky130_fd_sc_hd__nor2_2
*I *654:A_N I *D sky130_fd_sc_hd__and2b_2
*I *719:Y O *D sky130_fd_sc_hd__nor2_2
*CAP
1 *720:B 0.000116301
2 *654:A_N 0.00011468
3 *719:Y 0
4 *118:6 0.000230981
5 *654:A_N *658:A 2.86623e-05
6 *654:A_N *659:B1 8.64599e-05
7 *654:A_N *119:10 5.84456e-05
8 *720:B *657:C1 0
9 *720:B *119:8 2.75145e-05
10 *720:B *119:10 1.26548e-05
11 *720:B *119:79 1.1561e-05
12 *720:B *184:45 0.000136884
13 *660:A4 *720:B 0
14 *660:B1 *654:A_N 5.05437e-05
15 *660:B1 *720:B 0
16 *720:A *720:B 4.82863e-05
*RES
1 *719:Y *118:6 3.6 
2 *118:6 *654:A_N 6.285 
3 *118:6 *720:B 6.195 
*END

*D_NET *119 0.00597858
*CONN
*I *737:A1 I *D sky130_fd_sc_hd__a21oi_2
*I *738:A1 I *D sky130_fd_sc_hd__a211o_2
*I *656:B2 I *D sky130_fd_sc_hd__a22o_2
*I *721:B I *D sky130_fd_sc_hd__nor2_2
*I *736:A I *D sky130_fd_sc_hd__nand2_2
*I *722:B I *D sky130_fd_sc_hd__or2_2
*I *652:B I *D sky130_fd_sc_hd__nand2_2
*I *658:A I *D sky130_fd_sc_hd__or2_2
*I *720:Y O *D sky130_fd_sc_hd__nor2_2
*CAP
1 *737:A1 2.54641e-05
2 *738:A1 0.000115694
3 *656:B2 1.97023e-05
4 *721:B 0
5 *736:A 0.000151507
6 *722:B 7.46801e-05
7 *652:B 0.000123086
8 *658:A 0.000114851
9 *720:Y 9.50463e-05
10 *119:81 0.000153517
11 *119:79 0.000175166
12 *119:63 0.000210833
13 *119:35 0.000286657
14 *119:29 0.000735679
15 *119:10 0.000815472
16 *119:8 0.000339786
17 *652:B *122:10 6.36578e-05
18 *656:B2 *176:50 7.60965e-05
19 *658:A *658:B 4.89395e-05
20 *658:A *134:21 0.000109148
21 *658:A *158:18 4.77807e-05
22 *722:B *667:C1 0.000116165
23 *722:B *122:10 0.000111316
24 *722:B *176:54 0
25 *737:A1 *737:A2 4.82863e-05
26 *737:A1 *176:50 3.63745e-05
27 *119:8 *184:45 4.66108e-05
28 *119:10 *134:21 7.3664e-05
29 *119:10 *134:32 5.7344e-05
30 *119:10 *184:45 0.000114492
31 *119:29 *659:A1 3.112e-05
32 *119:29 *659:B1 3.64998e-06
33 *119:29 *176:54 0
34 *119:35 *774:A 0.000120655
35 *119:63 *120:8 1.08758e-05
36 *119:63 *176:54 0
37 *119:79 *657:C1 0
38 *119:79 *738:A2 1.1561e-05
39 *119:79 *134:32 0.000122111
40 *119:79 *176:35 0
41 *119:79 *184:45 2.07184e-05
42 *119:81 *176:50 4.35348e-05
43 *654:A_N *658:A 2.86623e-05
44 *654:A_N *119:10 5.84456e-05
45 *656:A1 *656:B2 0.000124895
46 *656:A1 *737:A1 0.000122337
47 *656:A1 *119:81 8.49205e-05
48 *660:A1 *736:A 0.000392136
49 *660:A1 *119:63 3.66286e-05
50 *660:A3 *658:A 0
51 *665:A1 *738:A1 6.28843e-05
52 *677:A2 *738:A1 0
53 *720:A *119:8 8.34281e-06
54 *720:B *119:8 2.75145e-05
55 *720:B *119:10 1.26548e-05
56 *720:B *119:79 1.1561e-05
57 *721:A *652:B 7.71961e-05
58 *721:A *722:B 3.4222e-05
59 *721:A *119:29 7.06865e-05
60 *721:A *119:63 7.06865e-05
61 *723:C_N *652:B 3.5678e-06
*RES
1 *720:Y *119:8 4.74 
2 *119:8 *119:10 2.91 
3 *119:10 *658:A 6.45 
4 *119:10 *119:29 10.84 
5 *119:29 *119:35 5.14 
6 *119:35 *652:B 6.135 
7 *119:35 *722:B 6 
8 *119:29 *119:63 3.32 
9 *119:63 *736:A 5.155 
10 *119:63 *721:B 1.6 
11 *119:8 *119:79 4.91 
12 *119:79 *119:81 0.795 
13 *119:81 *656:B2 2.74 
14 *119:81 *738:A1 7.49 
15 *119:79 *737:A1 2.74 
*END

*D_NET *120 0.000875579
*CONN
*I *653:A_N I *D sky130_fd_sc_hd__and3b_2
*I *667:C1 I *D sky130_fd_sc_hd__a211o_2
*I *721:Y O *D sky130_fd_sc_hd__nor2_2
*CAP
1 *653:A_N 0
2 *667:C1 0.000137923
3 *721:Y 6.97429e-05
4 *120:8 0.000207666
5 *667:C1 *122:10 9.28188e-05
6 *667:C1 *176:54 0
7 *667:C1 *184:35 0.000186099
8 *660:A1 *120:8 4.08514e-05
9 *663:A *667:C1 1.34361e-05
10 *722:B *667:C1 0.000116165
11 *119:63 *120:8 1.08758e-05
*RES
1 *721:Y *120:8 2.755 
2 *120:8 *667:C1 9.53 
3 *120:8 *653:A_N 1.6 
*END

*D_NET *121 0.000700777
*CONN
*I *723:B I *D sky130_fd_sc_hd__or3b_2
*I *722:X O *D sky130_fd_sc_hd__or2_2
*CAP
1 *723:B 0.000216379
2 *722:X 0.000216379
3 *723:B *650:A1 8.58636e-05
4 *723:B *123:12 1.0183e-05
5 *723:B *159:18 8.65905e-05
6 *723:B *179:62 4.40899e-05
7 *723:B *184:10 0
8 *722:A *723:B 4.12912e-05
*RES
1 *722:X *723:B 11.16 
*END

*D_NET *122 0.00370563
*CONN
*I *727:A1 I *D sky130_fd_sc_hd__a31o_2
*I *672:A2 I *D sky130_fd_sc_hd__a41oi_2
*I *668:A2 I *D sky130_fd_sc_hd__a41o_2
*I *723:X O *D sky130_fd_sc_hd__or3b_2
*CAP
1 *727:A1 0
2 *672:A2 7.99552e-05
3 *668:A2 0
4 *723:X 0.000348646
5 *122:29 0.000426624
6 *122:10 0.000695316
7 *672:A2 *672:A3 0.000109016
8 *672:A2 *123:25 9.50342e-06
9 *122:10 *650:A1 9.09787e-05
10 *122:10 *179:62 0.000461103
11 *122:29 *727:A3 8.65905e-05
12 *122:29 *123:25 0.000136974
13 *122:29 *179:60 0.00056539
14 *122:29 *179:62 9.50342e-06
15 *652:B *122:10 6.36578e-05
16 *653:B *122:10 0.000132794
17 *663:A *122:10 0
18 *667:C1 *122:10 9.28188e-05
19 *721:A *122:10 8.56821e-06
20 *722:B *122:10 0.000111316
21 *723:C_N *122:10 3.71167e-05
22 *727:B1 *672:A2 6.55328e-05
23 *94:52 *672:A2 4.43871e-06
24 *95:29 *122:29 0.000160658
25 *99:14 *122:29 0
26 *99:16 *122:10 0
27 *116:10 *122:10 9.12857e-06
*RES
1 *723:X *122:10 12.915 
2 *122:10 *668:A2 3.6 
3 *122:10 *122:29 11.045 
4 *122:29 *672:A2 7.43 
5 *122:29 *727:A1 1.6 
*END

*D_NET *123 0.00305512
*CONN
*I *672:A3 I *D sky130_fd_sc_hd__a41oi_2
*I *727:A2 I *D sky130_fd_sc_hd__a31o_2
*I *668:A3 I *D sky130_fd_sc_hd__a41o_2
*I *724:X O *D sky130_fd_sc_hd__or3b_2
*CAP
1 *672:A3 9.57562e-05
2 *727:A2 0
3 *668:A3 0
4 *724:X 0.000267322
5 *123:25 0.000398198
6 *123:12 0.000569764
7 *672:A3 *126:12 6.55328e-05
8 *123:12 *687:A 0.000316484
9 *123:12 *159:12 0.000141606
10 *123:12 *179:62 0
11 *123:12 *184:10 4.58406e-05
12 *123:12 *184:23 0.000100308
13 *123:12 *185:6 4.35348e-05
14 *123:12 *185:16 0.000126584
15 *123:25 *126:12 5.53249e-06
16 *123:25 *179:60 0
17 *123:25 *185:16 9.06015e-05
18 *668:A4 *123:12 0.000119756
19 *668:A4 *123:25 4.60584e-05
20 *672:A2 *672:A3 0.000109016
21 *672:A2 *123:25 9.50342e-06
22 *723:B *123:12 1.0183e-05
23 *727:B1 *123:25 1.01661e-05
24 *762:A *123:12 0
25 *95:29 *123:25 8.71001e-05
26 *97:18 *123:25 0.000103192
27 *98:10 *123:12 7.21296e-06
28 *99:12 *123:25 7.44453e-05
29 *99:14 *123:25 7.44453e-05
30 *122:29 *123:25 0.000136974
*RES
1 *724:X *123:12 13.415 
2 *123:12 *668:A3 1.6 
3 *123:12 *123:25 9.635 
4 *123:25 *727:A2 3.6 
5 *123:25 *672:A3 5.88 
*END

*D_NET *124 0.000282473
*CONN
*I *726:A I *D sky130_fd_sc_hd__inv_2
*I *725:X O *D sky130_fd_sc_hd__and2b_2
*CAP
1 *726:A 0.000118702
2 *725:X 0.000118702
3 *726:A *125:10 4.50691e-05
4 *726:A *179:60 0
*RES
1 *725:X *726:A 9.285 
*END

*D_NET *125 0.0010389
*CONN
*I *672:A4 I *D sky130_fd_sc_hd__a41oi_2
*I *727:A3 I *D sky130_fd_sc_hd__a31o_2
*I *726:Y O *D sky130_fd_sc_hd__inv_2
*CAP
1 *672:A4 0
2 *727:A3 0.00016953
3 *726:Y 0.000151254
4 *125:10 0.000320784
5 *727:A3 *725:B 7.89767e-05
6 *727:A3 *179:60 7.89767e-05
7 *125:10 *725:B 3.24046e-05
8 *125:10 *179:60 7.53115e-05
9 *726:A *125:10 4.50691e-05
10 *122:29 *727:A3 8.65905e-05
*RES
1 *726:Y *125:10 6.375 
2 *125:10 *727:A3 7.065 
3 *125:10 *672:A4 3.6 
*END

*D_NET *126 0.00662147
*CONN
*I *680:B I *D sky130_fd_sc_hd__nand3_2
*I *729:A1 I *D sky130_fd_sc_hd__a21o_2
*I *671:B I *D sky130_fd_sc_hd__nand2_2
*I *727:X O *D sky130_fd_sc_hd__a31o_2
*CAP
1 *680:B 0
2 *729:A1 6.83307e-05
3 *671:B 1.95971e-05
4 *727:X 0.00020145
5 *126:45 0.00176396
6 *126:12 0.00191667
7 *671:B *179:60 4.82863e-05
8 *729:A1 *729:A2 0.000115614
9 *126:12 *179:60 0.000340033
10 *126:45 *678:A1 0.000114066
11 *126:45 *679:B 0.000766103
12 *126:45 *729:A2 8.65961e-05
13 *126:45 *776:A 0.000192
14 *126:45 *777:A 4.18603e-06
15 *126:45 *127:12 0.00014405
16 *126:45 *161:10 0
17 *126:45 *179:45 0.000590702
18 *672:A3 *126:12 6.55328e-05
19 *672:B1 *671:B 3.64998e-06
20 *686:B1 *126:45 0.000175109
21 *94:52 *126:12 0
22 *123:25 *126:12 5.53249e-06
*RES
1 *727:X *126:12 10.76 
2 *126:12 *671:B 2.05 
3 *126:12 *126:45 37.245 
4 *126:45 *729:A1 6.98 
5 *126:45 *680:B 1.6 
*END

*D_NET *127 0.000938919
*CONN
*I *680:C I *D sky130_fd_sc_hd__nand3_2
*I *729:A2 I *D sky130_fd_sc_hd__a21o_2
*I *728:Y O *D sky130_fd_sc_hd__nand2b_2
*CAP
1 *680:C 0
2 *729:A2 9.32004e-05
3 *728:Y 0.00016123
4 *127:12 0.000254431
5 *127:12 *678:A1 2.83579e-05
6 *686:B1 *729:A2 4.92047e-05
7 *686:B1 *127:12 6.23541e-06
8 *729:A1 *729:A2 0.000115614
9 *126:45 *729:A2 8.65961e-05
10 *126:45 *127:12 0.00014405
*RES
1 *728:Y *127:12 8.72 
2 *127:12 *729:A2 8.03 
3 *127:12 *680:C 1.6 
*END

*D_NET *128 0.00123929
*CONN
*I *685:A2 I *D sky130_fd_sc_hd__a31o_2
*I *744:A3 I *D sky130_fd_sc_hd__a32o_2
*I *729:X O *D sky130_fd_sc_hd__a21o_2
*CAP
1 *685:A2 6.13819e-05
2 *744:A3 0.000264043
3 *729:X 0.000202186
4 *128:6 0.000527611
5 *685:A2 *685:A1 4.43871e-06
6 *744:A3 *744:B1 4.99619e-05
7 *685:B1 *685:A2 3.47668e-05
8 *692:B *744:A3 4.82919e-05
9 *91:25 *685:A2 0
10 *91:25 *128:6 4.66108e-05
*RES
1 *729:X *128:6 4.465 
2 *128:6 *744:A3 5.77 
3 *128:6 *685:A2 6.725 
*END

*D_NET *129 0.000390975
*CONN
*I *735:B1 I *D sky130_fd_sc_hd__o21ai_2
*I *730:Y O *D sky130_fd_sc_hd__nand2_2
*CAP
1 *735:B1 0.00011437
2 *730:Y 0.00011437
3 *735:B1 *730:A 0.000111293
4 *735:B1 *183:26 5.09431e-05
*RES
1 *730:Y *735:B1 9.375 
*END

*D_NET *130 0.00481247
*CONN
*I *646:C I *D sky130_fd_sc_hd__or3_2
*I *643:B I *D sky130_fd_sc_hd__nand2_2
*I *642:B I *D sky130_fd_sc_hd__or2_2
*I *641:A I *D sky130_fd_sc_hd__xnor2_2
*I *735:A1 I *D sky130_fd_sc_hd__o21ai_2
*I *731:Y O *D sky130_fd_sc_hd__nor2_2
*CAP
1 *646:C 0.00070173
2 *643:B 0
3 *642:B 0
4 *641:A 0.000251194
5 *735:A1 0.000918975
6 *731:Y 1.9474e-05
7 *130:21 0.000303808
8 *130:17 0.000241091
9 *130:6 0.000425196
10 *646:C *646:B 2.62458e-05
11 *646:C *648:A3 6.98249e-05
12 *646:C *730:A 0.000266413
13 *646:C *148:23 8.41307e-05
14 *646:C *148:27 1.42807e-05
15 *735:A1 *730:A 4.77769e-05
16 *735:A1 *134:10 6.72833e-06
17 *130:21 *639:C1 0
18 *643:A *130:17 5.53249e-06
19 *643:A *130:21 8.08439e-05
20 *647:B2 *646:C 1.79098e-05
21 *649:C_N *646:C 0.000344363
22 *650:A3 *130:17 2.0027e-05
23 *650:B1 *646:C 7.6299e-05
24 *650:B1 *735:A1 0.000476831
25 *650:B1 *130:6 3.69049e-05
26 *651:A2_N *641:A 3.00381e-05
27 *651:A2_N *130:17 0.000130408
28 *651:A2_N *130:21 6.55328e-05
29 *731:B *130:17 0.000150907
30 *115:8 *130:17 0
*RES
1 *731:Y *130:6 2.05 
2 *130:6 *735:A1 6.88 
3 *130:6 *130:17 6.185 
4 *130:17 *130:21 3.635 
5 *130:21 *641:A 5.515 
6 *130:21 *642:B 1.6 
7 *130:17 *643:B 3.6 
8 *735:A1 *646:C 20.25 
*END

*D_NET *131 0.00131822
*CONN
*I *613:A0 I *D sky130_fd_sc_hd__mux2_1
*I *631:B I *D sky130_fd_sc_hd__xor2_2
*I *732:Y O *D sky130_fd_sc_hd__nand2_2
*CAP
1 *613:A0 0.000371035
2 *631:B 0.000485503
3 *732:Y 0.000114468
4 *613:A0 *614:A1 0.000104144
5 *613:A0 *614:B1 0.000114524
6 *613:A0 *732:A 0
7 *613:A0 *188:40 0
8 *631:B *732:B 6.74092e-05
9 Y[0] *613:A0 0
10 *747:A *613:A0 0
11 *765:A *613:A0 6.1138e-05
*RES
1 *732:Y *631:B 3.6475 
2 *631:B *613:A0 11.51 
*END

*D_NET *132 0.00191464
*CONN
*I *734:A2 I *D sky130_fd_sc_hd__a21oi_2
*I *633:B I *D sky130_fd_sc_hd__xnor2_2
*I *733:X O *D sky130_fd_sc_hd__a31o_2
*CAP
1 *734:A2 8.85754e-05
2 *633:B 0.000352056
3 *733:X 0.00026348
4 *633:B *630:B1 0.000115489
5 *734:A2 *772:A 0
6 *734:A2 *133:14 0
7 *734:A2 *177:30 5.53249e-06
8 *734:A2 *177:41 9.16315e-05
9 *733:A3 *633:B 4.66108e-05
10 *733:B1 *633:B 0.000122797
11 *108:8 *633:B 0.000828469
*RES
1 *733:X *633:B 10.895 
2 *633:B *734:A2 9.09 
*END

*D_NET *133 0.00269731
*CONN
*I *641:B I *D sky130_fd_sc_hd__xnor2_2
*I *735:A2 I *D sky130_fd_sc_hd__o21ai_2
*I *734:Y O *D sky130_fd_sc_hd__a21oi_2
*CAP
1 *641:B 9.10464e-05
2 *735:A2 0.000388361
3 *734:Y 0.000371518
4 *133:14 0.000850925
5 *735:A2 *639:C1 0
6 *735:A2 *640:A1 0
7 *735:A2 *659:B1 0
8 *735:A2 *730:A 4.89238e-05
9 *133:14 *638:A2 8.52784e-05
10 *133:14 *711:A 4.99619e-05
11 *133:14 *177:41 0
12 *639:B1 *641:B 0.000113237
13 *639:B1 *133:14 0.000353831
14 *640:B1 *133:14 8.23457e-05
15 *734:A2 *133:14 0
16 *109:22 *133:14 0.000261882
*RES
1 *734:Y *133:14 13.805 
2 *133:14 *735:A2 12.08 
3 *133:14 *641:B 3.445 
*END

*D_NET *134 0.00291361
*CONN
*I *738:A2 I *D sky130_fd_sc_hd__a211o_2
*I *737:A2 I *D sky130_fd_sc_hd__a21oi_2
*I *736:B I *D sky130_fd_sc_hd__nand2_2
*I *658:B I *D sky130_fd_sc_hd__or2_2
*I *735:Y O *D sky130_fd_sc_hd__o21ai_2
*CAP
1 *738:A2 0.000162727
2 *737:A2 9.73191e-06
3 *736:B 9.71884e-06
4 *658:B 4.98176e-05
5 *735:Y 0.000142413
6 *134:32 0.000355504
7 *134:21 0.000347926
8 *134:10 0.000347392
9 *658:B *158:18 4.22944e-05
10 *736:B *719:A 4.82919e-05
11 *737:A2 *176:50 4.82863e-05
12 *738:A2 *185:16 0.000231628
13 *134:10 *730:A 1.54665e-05
14 *134:21 *659:A1 7.60513e-05
15 *134:32 *718:A 4.38051e-05
16 *134:32 *719:A 7.4027e-05
17 *658:A *658:B 4.89395e-05
18 *658:A *134:21 0.000109148
19 *659:A2 *134:21 0.000114016
20 *660:A1 *736:B 4.82919e-05
21 *665:A1 *738:A2 6.28843e-05
22 *668:B1 *738:A2 8.43946e-05
23 *735:A1 *134:10 6.72833e-06
24 *737:A1 *737:A2 4.82863e-05
25 *738:C1 *738:A2 0.000104064
26 *96:10 *738:A2 1.70935e-05
27 *117:22 *134:32 0
28 *119:10 *134:21 7.3664e-05
29 *119:10 *134:32 5.7344e-05
30 *119:79 *738:A2 1.1561e-05
31 *119:79 *134:32 0.000122111
*RES
1 *735:Y *134:10 5.94 
2 *134:10 *658:B 4.74 
3 *134:10 *134:21 4.185 
4 *134:21 *736:B 4.05 
5 *134:21 *134:32 3.93 
6 *134:32 *737:A2 4.05 
7 *134:32 *738:A2 8.19 
*END

*D_NET *135 0.000361356
*CONN
*I *659:A1 I *D sky130_fd_sc_hd__a21o_2
*I *736:Y O *D sky130_fd_sc_hd__nand2_2
*CAP
1 *659:A1 0.000127092
2 *736:Y 0.000127092
3 *659:A1 *176:54 0
4 *119:29 *659:A1 3.112e-05
5 *134:21 *659:A1 7.60513e-05
*RES
1 *736:Y *659:A1 9.63 
*END

*D_NET *136 0.000863712
*CONN
*I *661:B I *D sky130_fd_sc_hd__or2_2
*I *662:B I *D sky130_fd_sc_hd__nand2_2
*I *737:Y O *D sky130_fd_sc_hd__a21oi_2
*CAP
1 *661:B 0.000152135
2 *662:B 2.7845e-05
3 *737:Y 6.38896e-05
4 *136:8 0.000243869
5 *661:B *669:A1 0
6 *662:B *185:16 9.66106e-05
7 *136:8 *669:A1 0
8 *668:B1 *662:B 0.000163204
9 *669:B1 *661:B 0
10 *738:C1 *136:8 0.000116158
11 *96:10 *661:B 0
*RES
1 *737:Y *136:8 4.98 
2 *136:8 *662:B 5.085 
3 *136:8 *661:B 6 
*END

*D_NET *137 0.0021032
*CONN
*I *740:A3 I *D sky130_fd_sc_hd__a31o_2
*I *739:B I *D sky130_fd_sc_hd__nand2_2
*I *738:X O *D sky130_fd_sc_hd__a211o_2
*CAP
1 *740:A3 0.000256389
2 *739:B 6.08274e-05
3 *738:X 0.000259621
4 *137:10 0.000576838
5 *740:A3 *670:B 0
6 *740:A3 *679:B 5.05521e-05
7 *137:10 *185:16 2.11084e-05
8 *677:A2 *740:A3 0.000129742
9 *677:A2 *137:10 0.000503111
10 *94:20 *740:A3 5.6361e-05
11 *94:35 *740:A3 2.54431e-05
12 *96:10 *137:10 0
13 *97:31 *739:B 0.000163204
*RES
1 *738:X *137:10 9.765 
2 *137:10 *739:B 5.085 
3 *137:10 *740:A3 8.1 
*END

*D_NET *138 0.000681648
*CONN
*I *670:B I *D sky130_fd_sc_hd__xnor2_2
*I *739:Y O *D sky130_fd_sc_hd__nand2_2
*CAP
1 *670:B 0.000221375
2 *739:Y 0.000221375
3 *670:B *678:A1 2.34345e-05
4 *670:B *776:A 4.61744e-05
5 *677:A2 *670:B 0
6 *740:A3 *670:B 0
7 *94:35 *670:B 0.000139252
8 *97:18 *670:B 3.00381e-05
*RES
1 *739:Y *670:B 11.325 
*END

*D_NET *139 0.00388439
*CONN
*I *741:A2 I *D sky130_fd_sc_hd__a21o_2
*I *679:B I *D sky130_fd_sc_hd__xor2_2
*I *740:X O *D sky130_fd_sc_hd__a31o_2
*CAP
1 *741:A2 0.000113626
2 *679:B 0.0006465
3 *740:X 0.000532874
4 *679:B *673:B 0.000158297
5 *679:B *678:A1 9.37731e-05
6 *679:B *694:A 0.0001249
7 *679:B *728:B 0.000109581
8 *679:B *179:45 0.000180463
9 *679:B *186:10 0
10 *741:A2 *685:A1 8.6099e-05
11 *741:A2 *179:10 2.62957e-05
12 *673:A_N *679:B 0.000201508
13 *674:B1 *679:B 2.34345e-05
14 *679:A *741:A2 0.000170517
15 *685:B1 *741:A2 9.50342e-06
16 *686:B1 *679:B 0.000161893
17 *686:B2 *679:B 0.000275226
18 *740:A3 *679:B 5.05521e-05
19 *91:8 *741:A2 3.09164e-05
20 *94:20 *679:B 0.000122331
21 *126:45 *679:B 0.000766103
*RES
1 *740:X *679:B 21.2825 
2 *679:B *741:A2 8.7575 
*END

*D_NET *140 0.00051389
*CONN
*I *744:B1 I *D sky130_fd_sc_hd__a32o_2
*I *741:X O *D sky130_fd_sc_hd__a21o_2
*CAP
1 *744:B1 0.000150941
2 *741:X 0.000150941
3 *692:A *744:B1 8.53113e-06
4 *741:B1 *744:B1 7.4538e-05
5 *744:A3 *744:B1 4.99619e-05
6 *778:A *744:B1 7.89767e-05
*RES
1 *741:X *744:B1 10.395 
*END

*D_NET *141 0.00917321
*CONN
*I *766:A I *D sky130_fd_sc_hd__clkbuf_2
*I *682:B1 I *D sky130_fd_sc_hd__a21o_2
*I *649:A I *D sky130_fd_sc_hd__or3b_2
*I *630:D1 I *D sky130_fd_sc_hd__a2111o_2
*I *744:B2 I *D sky130_fd_sc_hd__a32o_2
*I *742:Y O *D sky130_fd_sc_hd__nor3_2
*CAP
1 *766:A 3.48089e-05
2 *682:B1 0.000500088
3 *649:A 0.000148008
4 *630:D1 0.000206045
5 *744:B2 0.000309869
6 *742:Y 0.00021537
7 *141:33 0.000751973
8 *141:29 0.000898008
9 *141:27 0.000573829
10 *141:8 0.00106426
11 *630:D1 *142:12 7.12099e-06
12 *630:D1 *142:25 4.89295e-05
13 *630:D1 *155:42 0.000154857
14 *630:D1 *155:44 9.18556e-05
15 *649:A *619:A3 3.64998e-06
16 *649:A *619:B1 0.000530743
17 *649:A *148:23 9.77402e-05
18 *682:B1 *675:A1 4.203e-05
19 *682:B1 *683:A2_N 7.08554e-05
20 *682:B1 *142:55 0.000242102
21 *682:B1 *154:72 0
22 *682:B1 *154:81 0.00010364
23 *744:B2 *690:A 8.38943e-05
24 *744:B2 *162:8 8.35126e-05
25 *744:B2 *162:10 6.5265e-05
26 *141:8 *614:B1 2.42236e-05
27 *141:8 *165:20 0.000121152
28 *141:8 *181:10 0
29 *141:8 *182:108 0.000206123
30 *141:27 *690:A 4.99619e-05
31 *141:27 *690:B 6.65725e-05
32 *141:27 *181:10 0.00016063
33 *141:33 *621:C 9.54399e-05
34 *141:33 *625:B 2.24402e-05
35 *141:33 *768:A 0
36 *141:33 *142:12 0.000950703
37 *141:33 *142:55 9.37731e-05
38 *141:33 *148:10 0.000290133
39 *141:33 *154:72 0
40 *141:33 *180:20 2.16306e-05
41 *141:33 *181:46 0.000116853
42 *141:33 *181:69 0
43 *649:C_N *649:A 0.000345502
44 *683:B1 *682:B1 0.000138016
45 *754:A *744:B2 0
46 *755:A *744:B2 0
47 *755:A *141:8 0
48 *88:10 *744:B2 0
49 *88:10 *141:8 0
50 *88:10 *141:27 0
51 *89:12 *744:B2 0.000141599
*RES
1 *742:Y *141:8 8.1675 
2 *141:8 *744:B2 10.6575 
3 *141:8 *141:27 10.3775 
4 *141:27 *141:29 2 
5 *141:29 *141:33 13.0125 
6 *141:33 *630:D1 7.3425 
7 *141:33 *649:A 9.4575 
8 *141:29 *682:B1 16.495 
9 *141:27 *766:A 2.05 
*END

*D_NET *142 0.013993
*CONN
*I *686:A1 I *D sky130_fd_sc_hd__o22a_2
*I *678:A1 I *D sky130_fd_sc_hd__o22a_2
*I *659:B1 I *D sky130_fd_sc_hd__a21o_2
*I *640:A1 I *D sky130_fd_sc_hd__o22a_2
*I *632:B2 I *D sky130_fd_sc_hd__o22a_2
*I *743:X O *D sky130_fd_sc_hd__or3_2
*CAP
1 *686:A1 9.67208e-05
2 *678:A1 0.00140497
3 *659:B1 0.000622031
4 *640:A1 0.000291138
5 *632:B2 0.000153259
6 *743:X 3.58965e-05
7 *142:55 0.00202257
8 *142:25 0.0017585
9 *142:12 0.00143228
10 *142:6 0.000990465
11 *640:A1 *647:A1 0
12 *659:B1 *647:A1 0
13 *678:A1 *673:B 4.66108e-05
14 *678:A1 *693:A 1.83847e-05
15 *678:A1 *179:45 0.000292402
16 *142:6 *625:C_N 2.75145e-05
17 *142:12 *732:B 3.54721e-05
18 *142:12 *154:12 0.000218795
19 *142:12 *154:72 8.09325e-05
20 *142:12 *155:12 0.00013276
21 *142:12 *155:42 5.51172e-05
22 *142:25 *630:A2 0.000201349
23 *142:25 *630:B1 0.000161101
24 *142:25 *638:B1 0.000279651
25 *142:25 *647:A1 3.0807e-05
26 *142:55 *625:C_N 4.08514e-05
27 *142:55 *685:A1 0
28 *142:55 *180:20 0.000460449
29 *628:B2 *142:12 0.000157326
30 *628:C1 *142:12 0.000157326
31 *630:D1 *142:12 7.12099e-06
32 *630:D1 *142:25 4.89295e-05
33 *632:A2 *632:B2 0.000121437
34 *632:A2 *142:25 3.66286e-05
35 *639:B1 *640:A1 0
36 *654:A_N *659:B1 8.64599e-05
37 *660:A3 *659:B1 2.93136e-05
38 *660:B1 *659:B1 4.41432e-05
39 *670:B *678:A1 2.34345e-05
40 *672:B1 *678:A1 0
41 *673:A_N *678:A1 0
42 *674:B1 *678:A1 7.23602e-05
43 *678:A2 *678:A1 0
44 *678:B1 *678:A1 4.82919e-05
45 *679:B *678:A1 9.37731e-05
46 *680:A *678:A1 3.64998e-06
47 *682:B1 *142:55 0.000242102
48 *684:B1 *142:55 0
49 *685:A3 *678:A1 1.06688e-05
50 *686:B2 *686:A1 0
51 *686:B2 *142:55 0
52 *712:A_N *640:A1 0
53 *735:A2 *640:A1 0
54 *735:A2 *659:B1 0
55 *91:25 *142:55 0.000158297
56 *92:6 *678:A1 1.56428e-05
57 *93:12 *678:A1 1.83847e-05
58 *93:19 *678:A1 3.23663e-05
59 *94:20 *678:A1 0.000124007
60 *94:35 *678:A1 0.00011686
61 *94:52 *678:A1 2.49909e-05
62 *109:22 *640:A1 0
63 *111:8 *142:25 0.000238919
64 *119:29 *659:B1 3.64998e-06
65 *126:45 *678:A1 0.000114066
66 *127:12 *678:A1 2.83579e-05
67 *141:33 *142:12 0.000950703
68 *141:33 *142:55 9.37731e-05
*RES
1 *743:X *142:6 2.05 
2 *142:6 *142:12 18.64 
3 *142:12 *632:B2 4.045 
4 *142:12 *142:25 15.905 
5 *142:25 *640:A1 8.04 
6 *142:25 *659:B1 13.875 
7 *142:6 *142:55 13.655 
8 *142:55 *678:A1 32.18 
9 *142:55 *686:A1 4.98 
*END

*D_NET *143 0.00234311
*CONN
*I *615:B I *D sky130_fd_sc_hd__or2_2
*I *614:B1 I *D sky130_fd_sc_hd__o211a_2
*I *612:Y O *D sky130_fd_sc_hd__nand2_2
*CAP
1 *615:B 9.44826e-05
2 *614:B1 0.000321755
3 *612:Y 8.66874e-05
4 *143:8 0.000502925
5 *614:B1 *613:A1 8.76986e-05
6 *614:B1 *614:C1 6.29387e-05
7 *614:B1 *742:B 0
8 *614:B1 *164:12 0.000246872
9 *614:B1 *181:12 0
10 *614:B1 *182:8 5.12017e-06
11 *614:B1 *182:108 0.000183738
12 *615:B *615:A 1.31519e-05
13 *615:B *689:A 5.4155e-06
14 *615:B *164:12 8.82557e-05
15 *615:B *165:29 0.000161837
16 *615:B *165:40 4.21973e-05
17 *615:B *181:31 0.000166056
18 *143:8 *612:B 4.66108e-05
19 *143:8 *165:29 4.0843e-05
20 *613:A0 *614:B1 0.000114524
21 *747:A *614:B1 4.77769e-05
22 *757:A *614:B1 0
23 *88:36 *614:B1 0
24 *141:8 *614:B1 2.42236e-05
*RES
1 *612:Y *143:8 3.1 
2 *143:8 *614:B1 14.06 
3 *143:8 *615:B 5.17 
*END

*D_NET *144 0.000283788
*CONN
*I *614:C1 I *D sky130_fd_sc_hd__o211a_2
*I *613:X O *D sky130_fd_sc_hd__mux2_1
*CAP
1 *614:C1 8.59548e-05
2 *613:X 8.59548e-05
3 *614:B1 *614:C1 6.29387e-05
4 *747:A *614:C1 4.89395e-05
*RES
1 *613:X *614:C1 9.03 
*END

*D_NET *145 0.000467938
*CONN
*I *620:A I *D sky130_fd_sc_hd__or3_2
*I *614:X O *D sky130_fd_sc_hd__o211a_2
*CAP
1 *620:A 0.00016364
2 *614:X 0.00016364
3 *620:A *613:S 9.13235e-05
4 *620:A *770:A 4.93336e-05
*RES
1 *614:X *620:A 10.32 
*END

*D_NET *146 0.0115547
*CONN
*I *655:A2_N I *D sky130_fd_sc_hd__a2bb2o_2
*I *674:A2 I *D sky130_fd_sc_hd__o21ai_2
*I *683:A2_N I *D sky130_fd_sc_hd__a2bb2o_2
*I *664:A2_N I *D sky130_fd_sc_hd__a2bb2o_2
*I *645:B I *D sky130_fd_sc_hd__nor2_2
*I *635:B I *D sky130_fd_sc_hd__nor2_2
*I *629:A2_N I *D sky130_fd_sc_hd__a2bb2o_2
*I *616:B I *D sky130_fd_sc_hd__nor2_2
*I *615:X O *D sky130_fd_sc_hd__or2_2
*CAP
1 *655:A2_N 0
2 *674:A2 3.55506e-05
3 *683:A2_N 0.000392874
4 *664:A2_N 0
5 *645:B 0
6 *635:B 3.52935e-05
7 *629:A2_N 0.000533081
8 *616:B 9.3897e-05
9 *615:X 0.000263101
10 *146:89 0.000712602
11 *146:76 0.000693603
12 *146:68 0.000582685
13 *146:29 0.000651662
14 *146:27 0.000339224
15 *146:23 0.0012872
16 *146:8 0.001215
17 *616:B *614:A2 2.69217e-05
18 *616:B *620:B 4.75977e-05
19 *616:B *620:C 0.000114016
20 *616:B *155:8 8.64599e-05
21 *629:A2_N *637:A1 0.000295899
22 *629:A2_N *637:A2 0.000114492
23 *629:A2_N *637:B1 6.10014e-05
24 *635:B *638:B1 0.000198939
25 *635:B *177:47 0.000182816
26 *683:A2_N *675:A1 7.72798e-05
27 *683:A2_N *676:A2 0.000278027
28 *683:A2_N *682:A1 9.74299e-05
29 *683:A2_N *683:A1_N 5.3129e-06
30 *683:A2_N *186:29 0
31 *146:8 *620:B 6.49342e-05
32 *146:8 *620:C 4.43211e-05
33 *146:8 *746:A 7.81876e-05
34 *146:8 *154:12 0
35 *146:23 *613:S 0.000173068
36 *146:23 *151:29 0.000278695
37 *146:27 *648:B2 3.32517e-05
38 *146:27 *655:B2 4.47887e-05
39 *146:27 *154:23 1.10951e-05
40 *146:27 *183:34 0.000201807
41 *146:29 *637:A2 9.50008e-05
42 *146:29 *637:B1 6.57324e-05
43 *146:29 *154:23 4.22132e-05
44 *146:29 *183:34 5.31158e-06
45 *146:68 *151:29 2.69217e-05
46 *146:68 *151:40 3.93467e-05
47 *146:68 *184:63 5.49536e-05
48 *146:76 *654:B 0
49 *146:76 *657:A1 0.000181414
50 *146:76 *657:A2 7.30547e-05
51 *146:76 *666:A1 0
52 *146:76 *666:B2 0
53 *146:76 *675:A2 2.97004e-06
54 *146:76 *184:59 0
55 *146:89 *657:A1 5.53249e-06
56 *146:89 *675:A2 0.000189868
57 *146:89 *676:A2 0.000261321
58 *146:89 *176:35 0
59 *146:89 *186:29 0
60 *627:B *629:A2_N 0
61 *637:B2 *629:A2_N 7.66551e-06
62 *657:B1 *146:76 0
63 *660:A4 *146:76 0
64 *664:B2 *146:89 0.000194165
65 *665:B1 *146:76 0
66 *665:C1 *146:76 4.12408e-05
67 *676:B1 *674:A2 0
68 *676:B1 *146:89 0.00016063
69 *676:C1 *146:89 9.14049e-05
70 *682:B1 *683:A2_N 7.08554e-05
71 *683:B1 *683:A2_N 9.80032e-06
72 *683:B2 *683:A2_N 4.77719e-05
73 *712:B *629:A2_N 0.000124007
74 *31:31 *146:76 0.000213207
75 *88:36 *146:8 0.00019824
*RES
1 *615:X *146:8 10.08 
2 *146:8 *616:B 6.12 
3 *146:8 *146:23 12.455 
4 *146:23 *146:27 7.46 
5 *146:27 *146:29 2.4 
6 *146:29 *629:A2_N 11.775 
7 *146:29 *635:B 5.43 
8 *146:27 *645:B 3.6 
9 *146:23 *146:68 2.55 
10 *146:68 *146:76 10.82 
11 *146:76 *664:A2_N 3.6 
12 *146:76 *146:89 10.49 
13 *146:89 *683:A2_N 13.9888 
14 *146:89 *674:A2 2.215 
15 *146:68 *655:A2_N 1.6 
*END

*D_NET *147 0.000676846
*CONN
*I *620:B I *D sky130_fd_sc_hd__or3_2
*I *616:Y O *D sky130_fd_sc_hd__nor2_2
*CAP
1 *620:B 0.000165615
2 *616:Y 0.000165615
3 *620:B *613:S 0.000122331
4 *620:B *154:12 0.000110753
5 *616:B *620:B 4.75977e-05
6 *146:8 *620:B 6.49342e-05
*RES
1 *616:Y *620:B 10.74 
*END

*D_NET *148 0.00784759
*CONN
*I *768:A I *D sky130_fd_sc_hd__buf_1
*I *648:A3 I *D sky130_fd_sc_hd__a32o_2
*I *638:A2 I *D sky130_fd_sc_hd__a221o_2
*I *629:B1 I *D sky130_fd_sc_hd__a2bb2o_2
*I *619:A3 I *D sky130_fd_sc_hd__a32o_2
*I *617:Y O *D sky130_fd_sc_hd__nor3b_2
*CAP
1 *768:A 0.00023198
2 *648:A3 0.000236065
3 *638:A2 0.000362585
4 *629:B1 0.00016416
5 *619:A3 0.000189136
6 *617:Y 0.000559927
7 *148:27 0.00093272
8 *148:23 0.000997526
9 *148:10 0.00087257
10 *619:A3 *619:B1 5.32022e-05
11 *629:B1 *630:B1 5.16348e-05
12 *629:B1 *637:A1 4.66108e-05
13 *638:A2 *637:A1 9.53428e-06
14 *638:A2 *637:A2 3.08098e-05
15 *638:A2 *638:B1 6.43969e-05
16 *638:A2 *638:B2 2.66464e-05
17 *648:A3 *648:A1 4.6075e-05
18 *648:A3 *648:B1 0.000226451
19 *648:A3 *149:10 2.06767e-05
20 *648:A3 *149:12 0.000114326
21 *768:A *618:A 0.000121019
22 *768:A *151:74 0.000243539
23 *768:A *180:56 2.49909e-05
24 *768:A *181:46 0
25 *768:A *181:69 4.86642e-05
26 *148:10 *621:C 7.23602e-05
27 *148:27 *630:B1 0
28 *148:27 *149:12 8.07114e-05
29 *148:27 *149:16 0.00030372
30 *627:B *629:B1 0.000243279
31 *627:B *638:A2 0.000357005
32 *637:C1 *148:27 5.88634e-05
33 *640:B1 *638:A2 0.00015285
34 *646:C *648:A3 6.98249e-05
35 *646:C *148:23 8.41307e-05
36 *646:C *148:27 1.42807e-05
37 *649:A *619:A3 3.64998e-06
38 *649:A *148:23 9.77402e-05
39 *649:C_N *148:23 8.61608e-05
40 *712:B *638:A2 0.000147362
41 *31:8 *768:A 2.49909e-05
42 *133:14 *638:A2 8.52784e-05
43 *141:33 *768:A 0
44 *141:33 *148:10 0.000290133
*RES
1 *617:Y *148:10 12.59 
2 *148:10 *619:A3 4.045 
3 *148:10 *148:23 6.59 
4 *148:23 *148:27 9.5 
5 *148:27 *629:B1 8.495 
6 *148:27 *638:A2 9.80875 
7 *148:23 *648:A3 8.79 
8 *617:Y *768:A 11.7 
*END

*D_NET *149 0.0102498
*CONN
*I *657:A2 I *D sky130_fd_sc_hd__a211o_2
*I *675:A2 I *D sky130_fd_sc_hd__a22o_2
*I *666:A2 I *D sky130_fd_sc_hd__a221o_2
*I *648:B1 I *D sky130_fd_sc_hd__a32o_2
*I *619:B1 I *D sky130_fd_sc_hd__a32o_2
*I *638:B1 I *D sky130_fd_sc_hd__a221o_2
*I *630:A2 I *D sky130_fd_sc_hd__a2111o_2
*I *618:X O *D sky130_fd_sc_hd__and3_2
*CAP
1 *657:A2 0.000341156
2 *675:A2 0.000295541
3 *666:A2 0
4 *648:B1 9.55816e-05
5 *619:B1 0.000418822
6 *638:B1 0.000366256
7 *630:A2 8.45171e-05
8 *618:X 0.000113133
9 *149:84 0.0004577
10 *149:76 0.000636183
11 *149:16 0.000614967
12 *149:12 0.000680226
13 *149:10 0.000539577
14 *149:6 0.000592787
15 *619:B1 *619:A1 3.36417e-05
16 *619:B1 *619:A2 4.66108e-05
17 *619:B1 *155:42 0.000157401
18 *630:A2 *630:A1 0.000219725
19 *630:A2 *630:B1 4.82863e-05
20 *630:A2 *635:A 9.13949e-06
21 *630:A2 *177:47 4.85381e-05
22 *638:B1 *638:B2 1.34967e-05
23 *638:B1 *647:A1 8.23457e-05
24 *638:B1 *177:47 0.000112124
25 *657:A2 *657:A1 0.000203178
26 *657:A2 *666:B2 0
27 *675:A2 *666:A1 1.78675e-05
28 *675:A2 *675:B2 0.000132088
29 *149:10 *648:B2 5.7989e-05
30 *149:10 *666:B2 0.00013651
31 *149:10 *151:74 0
32 *149:16 *637:B1 0
33 *149:84 *665:A2 5.26518e-05
34 *149:84 *666:A1 8.03781e-05
35 *149:84 *666:B2 0.000285875
36 *619:A3 *619:B1 5.32022e-05
37 *627:B *638:B1 9.30717e-05
38 *635:B *638:B1 0.000198939
39 *638:A2 *638:B1 6.43969e-05
40 *648:A3 *648:B1 0.000226451
41 *648:A3 *149:10 2.06767e-05
42 *648:A3 *149:12 0.000114326
43 *649:A *619:B1 0.000530743
44 *649:B *149:12 7.1624e-05
45 *660:A4 *657:A2 5.30673e-05
46 *663:A *657:A2 0.000149293
47 *665:B1 *657:A2 9.67735e-05
48 *665:B1 *149:84 0
49 *665:C1 *149:84 0
50 *668:B1 *675:A2 0.00012657
51 *712:B *638:B1 0.000134148
52 *31:23 *657:A2 2.7441e-05
53 *31:23 *149:10 4.39656e-05
54 *31:23 *149:76 3.03775e-05
55 *31:31 *657:A2 9.27255e-06
56 *111:8 *638:B1 9.98772e-05
57 *142:25 *630:A2 0.000201349
58 *142:25 *638:B1 0.000279651
59 *146:76 *657:A2 7.30547e-05
60 *146:76 *675:A2 2.97004e-06
61 *146:89 *675:A2 0.000189868
62 *148:27 *149:12 8.07114e-05
63 *148:27 *149:16 0.00030372
*RES
1 *618:X *149:6 2.74 
2 *149:6 *149:10 8.99 
3 *149:10 *149:12 2.4 
4 *149:12 *149:16 5.675 
5 *149:16 *630:A2 4.93 
6 *149:16 *638:B1 14.345 
7 *149:12 *619:B1 11.835 
8 *149:10 *648:B1 5.7 
9 *149:6 *149:76 1.485 
10 *149:76 *149:84 7.6975 
11 *149:84 *666:A2 1.6 
12 *149:84 *675:A2 12.1213 
13 *149:76 *657:A2 11.855 
*END

*D_NET *150 0.000551963
*CONN
*I *620:C I *D sky130_fd_sc_hd__or3_2
*I *619:X O *D sky130_fd_sc_hd__a32o_2
*CAP
1 *620:C 0.000117537
2 *619:X 0.000117537
3 *616:B *620:C 0.000114016
4 *88:36 *620:C 0.000158552
5 *146:8 *620:C 4.43211e-05
*RES
1 *619:X *620:C 10.62 
*END

*D_NET *151 0.00959603
*CONN
*I *666:B1 I *D sky130_fd_sc_hd__a221o_2
*I *675:B1 I *D sky130_fd_sc_hd__a22o_2
*I *682:A2 I *D sky130_fd_sc_hd__a21o_2
*I *647:A2 I *D sky130_fd_sc_hd__a221o_2
*I *637:A2 I *D sky130_fd_sc_hd__a221o_2
*I *655:B1 I *D sky130_fd_sc_hd__a2bb2o_2
*I *628:A2 I *D sky130_fd_sc_hd__a221o_2
*I *621:X O *D sky130_fd_sc_hd__and3b_2
*CAP
1 *666:B1 9.78571e-05
2 *675:B1 8.18798e-05
3 *682:A2 0
4 *647:A2 0.000285191
5 *637:A2 0.00026232
6 *655:B1 0
7 *628:A2 0.000362726
8 *621:X 0.000116277
9 *151:84 0.000378818
10 *151:74 0.000797158
11 *151:40 0.000704614
12 *151:29 0.000360695
13 *151:10 0.000604905
14 *151:8 0.000557228
15 *628:A2 *646:A 0.000156916
16 *628:A2 *646:B 0.000202135
17 *628:A2 *154:23 0.000179066
18 *637:A2 *637:B1 1.65105e-05
19 *637:A2 *183:34 5.13924e-05
20 *647:A2 *647:B1 4.66108e-05
21 *647:A2 *183:26 3.50113e-05
22 *647:A2 *183:30 2.01438e-05
23 *666:B1 *666:B2 6.49505e-05
24 *675:B1 *675:A1 0.000349592
25 *675:B1 *682:A1 0.000238137
26 *151:8 *621:B 0.000122199
27 *151:8 *182:30 8.73389e-06
28 *151:10 *646:A 4.4225e-05
29 *151:10 *646:B 0.00013959
30 *151:10 *181:71 9.37731e-05
31 *151:29 *184:63 0.000160342
32 *151:40 *655:B2 0.000112087
33 *151:40 *183:34 0.000318407
34 *151:40 *184:63 8.52972e-05
35 *151:74 *646:B 9.84957e-05
36 *151:74 *181:69 0.000129985
37 *151:74 *181:71 2.07184e-05
38 *151:74 *182:43 8.69157e-05
39 *151:74 *182:58 6.28498e-05
40 *627:B *637:A2 0
41 *629:A2_N *637:A2 0.000114492
42 *632:A1 *628:A2 2.58736e-05
43 *638:A2 *637:A2 3.08098e-05
44 *647:B2 *647:A2 6.03947e-06
45 *647:C1 *647:A2 0.000158556
46 *649:C_N *628:A2 0.000114016
47 *666:C1 *151:84 2.97802e-05
48 *683:B1 *151:74 0.000106655
49 *712:B *637:A2 2.91343e-05
50 *768:A *151:74 0.000243539
51 *31:23 *151:74 0
52 *31:31 *637:A2 0.000215315
53 *31:31 *151:40 0.000449932
54 *32:16 *151:74 2.05641e-05
55 *111:14 *637:A2 0.000157602
56 *146:23 *151:29 0.000278695
57 *146:29 *637:A2 9.50008e-05
58 *146:68 *151:29 2.69217e-05
59 *146:68 *151:40 3.93467e-05
60 *149:10 *151:74 0
*RES
1 *621:X *151:8 5.085 
2 *151:8 *151:10 1.635 
3 *151:10 *628:A2 11.7825 
4 *151:10 *151:29 6.935 
5 *151:29 *655:B1 1.6 
6 *151:29 *151:40 8.255 
7 *151:40 *637:A2 9.4725 
8 *151:40 *647:A2 7.54875 
9 *151:8 *151:74 10.31 
10 *151:74 *151:84 8.74 
11 *151:84 *682:A2 1.6 
12 *151:84 *675:B1 4.81 
13 *151:74 *666:B1 3.085 
*END

*D_NET *152 0.000374788
*CONN
*I *623:B1 I *D sky130_fd_sc_hd__a21oi_2
*I *622:Y O *D sky130_fd_sc_hd__o21ai_2
*CAP
1 *623:B1 0.000126038
2 *622:Y 0.000126038
3 *623:B1 *619:B2 8.53113e-06
4 *623:B1 *707:A_N 1.33293e-05
5 *623:B1 *188:40 2.67022e-05
6 *634:B1 *623:B1 7.41493e-05
*RES
1 *622:Y *623:B1 9.375 
*END

*D_NET *153 0.00266077
*CONN
*I *630:B1 I *D sky130_fd_sc_hd__a2111o_2
*I *623:Y O *D sky130_fd_sc_hd__a21oi_2
*CAP
1 *630:B1 0.000772515
2 *623:Y 0.000772515
3 *630:B1 *630:A1 2.23611e-05
4 *630:B1 *733:A2 4.66108e-05
5 *630:B1 *155:44 0
6 *629:B1 *630:B1 5.16348e-05
7 *629:B2 *630:B1 0.000180689
8 *630:A2 *630:B1 4.82863e-05
9 *633:B *630:B1 0.000115489
10 *709:B1 *630:B1 0.000234674
11 *733:A3 *630:B1 4.66108e-05
12 *733:B1 *630:B1 0.000122797
13 *103:10 *630:B1 2.92496e-05
14 *108:8 *630:B1 5.62336e-05
15 *110:26 *630:B1 0
16 *142:25 *630:B1 0.000161101
17 *148:27 *630:B1 0
*RES
1 *623:Y *630:B1 20.85 
*END

*D_NET *154 0.0113356
*CONN
*I *673:B I *D sky130_fd_sc_hd__nand2b_2
*I *664:B1 I *D sky130_fd_sc_hd__a2bb2o_2
*I *681:B I *D sky130_fd_sc_hd__and2b_2
*I *654:B I *D sky130_fd_sc_hd__and2b_2
*I *647:B1 I *D sky130_fd_sc_hd__a221o_2
*I *637:B1 I *D sky130_fd_sc_hd__a221o_2
*I *628:B1 I *D sky130_fd_sc_hd__a221o_2
*I *624:X O *D sky130_fd_sc_hd__and3b_2
*CAP
1 *673:B 0.000274064
2 *664:B1 6.81381e-05
3 *681:B 0
4 *654:B 0.00060287
5 *647:B1 6.09389e-05
6 *637:B1 0.000169257
7 *628:B1 0
8 *624:X 0
9 *154:81 0.000977706
10 *154:72 0.000870348
11 *154:36 0.000987222
12 *154:23 0.000989688
13 *154:12 0.00110463
14 *154:6 0.000842462
15 *647:B1 *638:B2 2.98644e-05
16 *647:B1 *644:B 6.30012e-05
17 *647:B1 *183:26 5.83121e-06
18 *647:B1 *183:30 2.49909e-05
19 *654:B *644:B 3.99951e-05
20 *654:B *647:A1 3.96421e-05
21 *654:B *183:26 6.04372e-05
22 *654:B *183:30 2.49909e-05
23 *654:B *184:59 2.97004e-06
24 *664:B1 *677:C1 1.0183e-05
25 *664:B1 *176:35 0
26 *673:B *677:C1 0.000232681
27 *673:B *179:45 4.66108e-05
28 *154:12 *628:A1 5.83121e-06
29 *154:12 *732:B 0.000116806
30 *154:12 *746:A 1.89685e-05
31 *154:12 *155:12 0.000233245
32 *154:23 *628:A1 1.91597e-05
33 *154:36 *183:30 0.000153675
34 *154:72 *746:A 8.07863e-05
35 *154:72 *163:10 0.000175855
36 *154:81 *176:14 0.000906491
37 *620:B *154:12 0.000110753
38 *628:A2 *154:23 0.000179066
39 *628:B2 *154:12 2.48591e-05
40 *629:A2_N *637:B1 6.10014e-05
41 *632:A1 *154:12 2.88598e-05
42 *632:A1 *154:23 1.27714e-05
43 *637:A2 *637:B1 1.65105e-05
44 *637:C1 *637:B1 4.19797e-05
45 *647:A2 *647:B1 4.66108e-05
46 *647:B2 *647:B1 2.98644e-05
47 *660:A2 *654:B 3.25591e-05
48 *660:A3 *654:B 7.18383e-05
49 *664:B2 *664:B1 0.000139231
50 *664:B2 *673:B 0.000446767
51 *674:B1 *673:B 5.12017e-06
52 *676:A1 *673:B 2.42236e-05
53 *678:A1 *673:B 4.66108e-05
54 *679:B *673:B 0.000158297
55 *682:B1 *154:72 0
56 *682:B1 *154:81 0.00010364
57 *684:B1 *154:81 1.4399e-05
58 *740:A2 *673:B 7.4027e-05
59 *110:26 *637:B1 8.53113e-06
60 *141:33 *154:72 0
61 *142:12 *154:12 0.000218795
62 *142:12 *154:72 8.09325e-05
63 *146:8 *154:12 0
64 *146:27 *154:23 1.10951e-05
65 *146:29 *637:B1 6.57324e-05
66 *146:29 *154:23 4.22132e-05
67 *146:76 *654:B 0
68 *149:16 *637:B1 0
*RES
1 *624:X *154:6 3.6 
2 *154:6 *154:12 14.135 
3 *154:12 *628:B1 1.6 
4 *154:12 *154:23 9.785 
5 *154:23 *637:B1 7.02 
6 *154:23 *154:36 5.9 
7 *154:36 *647:B1 7.175 
8 *154:36 *654:B 15.68 
9 *154:6 *154:72 7.46 
10 *154:72 *681:B 1.6 
11 *154:72 *154:81 14.525 
12 *154:81 *664:B1 5.235 
13 *154:81 *673:B 12.57 
*END

*D_NET *155 0.00746026
*CONN
*I *614:A2 I *D sky130_fd_sc_hd__o211a_2
*I *616:A I *D sky130_fd_sc_hd__nor2_2
*I *628:A1 I *D sky130_fd_sc_hd__a221o_2
*I *707:A_N I *D sky130_fd_sc_hd__nand2b_2
*I *733:A2 I *D sky130_fd_sc_hd__a31o_2
*I *619:A2 I *D sky130_fd_sc_hd__a32o_2
*I *732:B I *D sky130_fd_sc_hd__nand2_2
*I *747:X O *D sky130_fd_sc_hd__clkdlybuf4s25_1
*CAP
1 *614:A2 0.00040366
2 *616:A 0
3 *628:A1 5.53013e-05
4 *707:A_N 0.000528432
5 *733:A2 0.000137228
6 *619:A2 3.69588e-05
7 *732:B 0.000646896
8 *747:X 0.000511964
9 *155:44 0.000771737
10 *155:42 0.000332157
11 *155:29 0.000207738
12 *155:12 0.000745046
13 *155:8 0.000206454
14 *614:A2 *614:A1 6.03947e-06
15 *707:A_N *619:B2 5.53461e-05
16 *732:B *631:A 3.33763e-05
17 *733:A2 *166:47 0.000174279
18 *733:A2 *166:68 4.31106e-05
19 *616:B *614:A2 2.69217e-05
20 *616:B *155:8 8.64599e-05
21 *619:B1 *619:A2 4.66108e-05
22 *619:B1 *155:42 0.000157401
23 *622:A2 *707:A_N 4.82919e-05
24 *623:B1 *707:A_N 1.33293e-05
25 *627:A *707:A_N 8.65961e-05
26 *627:B *707:A_N 6.02791e-05
27 *628:B2 *733:A2 0.000218084
28 *628:B2 *155:42 4.28943e-05
29 *628:B2 *155:44 0.000279681
30 *628:C1 *707:A_N 4.99619e-05
31 *630:B1 *733:A2 4.66108e-05
32 *630:B1 *155:44 0
33 *630:C1 *155:44 4.91189e-05
34 *630:D1 *155:42 0.000154857
35 *630:D1 *155:44 9.18556e-05
36 *631:B *732:B 6.74092e-05
37 *632:A1 *628:A1 2.49909e-05
38 *632:B1 *732:B 4.53798e-05
39 *634:B1 *707:A_N 0.000120655
40 *747:A *614:A2 7.47964e-05
41 *104:8 *733:A2 5.16348e-05
42 *106:8 *707:A_N 0.000122325
43 *142:12 *732:B 3.54721e-05
44 *142:12 *155:12 0.00013276
45 *142:12 *155:42 5.51172e-05
46 *154:12 *628:A1 5.83121e-06
47 *154:12 *732:B 0.000116806
48 *154:12 *155:12 0.000233245
49 *154:23 *628:A1 1.91597e-05
*RES
1 *747:X *155:8 3.445 
2 *155:8 *155:12 4.91 
3 *155:12 *732:B 12.195 
4 *155:12 *155:29 2 
5 *155:29 *619:A2 2.05 
6 *155:29 *155:42 5.375 
7 *155:42 *155:44 3.42 
8 *155:44 *733:A2 7.215 
9 *155:44 *707:A_N 12.345 
10 *155:42 *628:A1 4.77 
11 *155:8 *616:A 1.6 
12 *747:X *614:A2 8.06 
*END

*D_NET *156 0.00135392
*CONN
*I *704:A I *D sky130_fd_sc_hd__and2_2
*I *708:A_N I *D sky130_fd_sc_hd__and2b_2
*I *706:A I *D sky130_fd_sc_hd__xnor2_2
*I *705:A I *D sky130_fd_sc_hd__or2_2
*I *748:X O *D sky130_fd_sc_hd__clkdlybuf4s25_1
*CAP
1 *704:A 2.20267e-05
2 *708:A_N 0
3 *706:A 0.000169808
4 *705:A 0.000121402
5 *748:X 0.000233902
6 *156:31 9.4824e-05
7 *156:22 0.000355105
8 *704:A *166:32 2.16917e-05
9 *706:A *706:B 5.05437e-05
10 *706:A *166:23 0.000159313
11 *156:22 *166:12 0
12 *156:31 *166:23 2.16917e-05
13 *156:31 *166:32 7.35729e-05
14 *634:B1 *156:22 0
15 *104:8 *156:22 0
16 *105:10 *706:A 3.00381e-05
*RES
1 *748:X *705:A 5.03 
2 *748:X *156:22 7.235 
3 *156:22 *706:A 5.155 
4 *156:22 *156:31 1.485 
5 *156:31 *708:A_N 1.6 
6 *156:31 *704:A 2.05 
*END

*D_NET *157 0.00157232
*CONN
*I *711:A I *D sky130_fd_sc_hd__or2_2
*I *714:A_N I *D sky130_fd_sc_hd__and2b_2
*I *710:A I *D sky130_fd_sc_hd__and2_2
*I *749:X O *D sky130_fd_sc_hd__clkdlybuf4s25_1
*CAP
1 *711:A 0.000294155
2 *714:A_N 0.000294155
3 *710:A 9.33414e-06
4 *749:X 0.00023359
5 *157:12 0.000242924
6 *710:A *714:B 4.82863e-05
7 *711:A *714:B 3.23663e-05
8 *711:A *177:14 8.79923e-05
9 *157:12 *772:A 0
10 *734:A1 *711:A 0.000141323
11 *734:B1 *711:A 8.8266e-05
12 *109:22 *711:A 4.99619e-05
13 *133:14 *711:A 4.99619e-05
*RES
1 *749:X *157:12 8.465 
2 *157:12 *710:A 2.05 
3 *157:12 *714:A_N 1.6 
4 *714:A_N *711:A 9.17 
*END

*D_NET *158 0.00640195
*CONN
*I *703:A_N I *D sky130_fd_sc_hd__and2b_2
*I *701:B I *D sky130_fd_sc_hd__nand2b_2
*I *730:A I *D sky130_fd_sc_hd__nand2_2
*I *644:A I *D sky130_fd_sc_hd__or2_2
*I *648:A1 I *D sky130_fd_sc_hd__a32o_2
*I *750:X O *D sky130_fd_sc_hd__clkdlybuf4s25_1
*CAP
1 *703:A_N 0.000278927
2 *701:B 0
3 *730:A 0.000253987
4 *644:A 0
5 *648:A1 0.000262701
6 *750:X 2.91849e-05
7 *158:31 0.000430886
8 *158:18 0.00181776
9 *158:8 0.00143087
10 *158:6 0.00036082
11 *703:A_N *183:12 0
12 *730:A *644:B 4.77807e-05
13 *158:18 *650:A1 0.000221463
14 *646:C *730:A 0.000266413
15 *648:A3 *648:A1 4.6075e-05
16 *650:A2 *703:A_N 0
17 *650:B1 *730:A 0.000493981
18 *650:B1 *158:18 5.83121e-06
19 *658:A *158:18 4.77807e-05
20 *658:B *158:18 4.22944e-05
21 *717:B *158:18 4.90291e-05
22 *723:A *158:18 8.33066e-06
23 *731:A *158:18 3.1562e-06
24 *735:A1 *730:A 4.77769e-05
25 *735:A2 *730:A 4.89238e-05
26 *735:B1 *730:A 0.000111293
27 *100:10 *158:18 5.07293e-05
28 *116:10 *158:18 3.04889e-05
29 *134:10 *730:A 1.54665e-05
*RES
1 *750:X *158:6 2.05 
2 *158:6 *158:8 0.795 
3 *158:8 *158:18 21.355 
4 *158:18 *648:A1 4.465 
5 *158:18 *158:31 6.91 
6 *158:31 *644:A 1.6 
7 *158:31 *730:A 14.015 
8 *158:8 *701:B 1.6 
9 *158:6 *703:A_N 9.785 
*END

*D_NET *159 0.0034212
*CONN
*I *687:A I *D sky130_fd_sc_hd__inv_2
*I *724:A I *D sky130_fd_sc_hd__or3b_2
*I *718:A I *D sky130_fd_sc_hd__and2_2
*I *719:A I *D sky130_fd_sc_hd__nor2_2
*I *751:X O *D sky130_fd_sc_hd__clkdlybuf4s25_1
*CAP
1 *687:A 0.000100137
2 *724:A 0
3 *718:A 3.91116e-05
4 *719:A 0.000119347
5 *751:X 0
6 *159:18 0.000851267
7 *159:12 0.000781624
8 *159:6 0.000188952
9 *718:A *176:54 0
10 *719:A *176:54 0
11 *159:12 *179:62 0
12 *159:18 *184:35 0.000318548
13 *159:18 *184:45 4.82919e-05
14 *660:A1 *719:A 5.43722e-05
15 *722:A *159:18 4.36791e-05
16 *723:B *159:18 8.65905e-05
17 *736:B *719:A 4.82919e-05
18 *98:10 *687:A 0.000124532
19 *98:10 *159:12 4.05358e-05
20 *123:12 *687:A 0.000316484
21 *123:12 *159:12 0.000141606
22 *134:32 *718:A 4.38051e-05
23 *134:32 *719:A 7.4027e-05
*RES
1 *751:X *159:6 3.6 
2 *159:6 *159:12 4.085 
3 *159:12 *159:18 11 
4 *159:18 *719:A 5.985 
5 *159:18 *718:A 4.215 
6 *159:12 *724:A 1.6 
7 *159:6 *687:A 7.05 
*END

*D_NET *160 0.0012467
*CONN
*I *725:A_N I *D sky130_fd_sc_hd__and2b_2
*I *696:A I *D sky130_fd_sc_hd__nand2_2
*I *698:A I *D sky130_fd_sc_hd__or2_4
*I *752:X O *D sky130_fd_sc_hd__clkdlybuf4s25_1
*CAP
1 *725:A_N 0.000176644
2 *696:A 0
3 *698:A 5.81455e-05
4 *752:X 0
5 *160:14 0.000183639
6 *160:6 0.000302138
7 *698:A *696:B 2.0514e-05
8 *725:A_N *725:B 0.000105988
9 *160:14 *696:B 8.09809e-05
10 *160:14 *725:B 0.000210846
11 *160:14 *185:68 3.09164e-05
12 *752:A *160:14 0
13 *95:16 *698:A 7.68843e-05
14 *95:16 *160:14 0
*RES
1 *752:X *160:6 3.6 
2 *160:6 *160:14 5.465 
3 *160:14 *698:A 3.085 
4 *160:14 *696:A 1.6 
5 *160:6 *725:A_N 6.555 
*END

*D_NET *161 0.000952337
*CONN
*I *694:A I *D sky130_fd_sc_hd__and2_2
*I *728:A_N I *D sky130_fd_sc_hd__nand2b_2
*I *693:A I *D sky130_fd_sc_hd__nor2_2
*I *753:X O *D sky130_fd_sc_hd__clkdlybuf4s25_1
*CAP
1 *694:A 1.86282e-05
2 *728:A_N 0
3 *693:A 0.000183762
4 *753:X 0.000139685
5 *161:23 1.86282e-05
6 *161:10 0.000323448
7 *693:A *186:12 0
8 *694:A *728:B 0.0001249
9 *161:10 *777:A 0
10 *678:A1 *693:A 1.83847e-05
11 *679:B *694:A 0.0001249
12 *126:45 *161:10 0
*RES
1 *753:X *161:10 5.43 
2 *161:10 *693:A 6.45 
3 *161:10 *161:23 2 
4 *161:23 *728:A_N 1.6 
5 *161:23 *694:A 2.74 
*END

*D_NET *162 0.00145825
*CONN
*I *688:A_N I *D sky130_fd_sc_hd__nand2b_2
*I *691:A I *D sky130_fd_sc_hd__and2_2
*I *690:A I *D sky130_fd_sc_hd__nor2_2
*I *754:X O *D sky130_fd_sc_hd__clkdlybuf4s25_1
*CAP
1 *688:A_N 4.02064e-05
2 *691:A 2.2266e-05
3 *690:A 8.85174e-05
4 *754:X 0.000128119
5 *162:10 0.000167974
6 *162:8 0.000225516
7 *688:A_N *187:6 4.80285e-05
8 *688:A_N *187:34 5.83121e-06
9 *690:A *690:B 0.000146947
10 *162:8 *769:A 0
11 *162:10 *690:B 4.43871e-06
12 *162:10 *187:10 5.92191e-05
13 *744:A1 *688:A_N 4.9253e-06
14 *744:A1 *162:8 0.000107716
15 *744:B2 *690:A 8.38943e-05
16 *744:B2 *162:8 8.35126e-05
17 *744:B2 *162:10 6.5265e-05
18 *754:A *162:8 0
19 *778:A *162:8 2.46007e-05
20 *88:10 *690:A 7.21296e-06
21 *88:10 *162:8 2.84224e-05
22 *88:10 *162:10 1.73877e-05
23 *89:12 *691:A 4.82919e-05
24 *141:27 *690:A 4.99619e-05
*RES
1 *754:X *162:8 7.275 
2 *162:8 *162:10 1.89 
3 *162:10 *690:A 6.45 
4 *162:10 *691:A 4.05 
5 *162:8 *688:A_N 4.395 
*END

*D_NET *163 0.00223029
*CONN
*I *743:C I *D sky130_fd_sc_hd__or3_2
*I *746:A I *D sky130_fd_sc_hd__clkdlybuf4s25_1
*I *755:X O *D sky130_fd_sc_hd__clkdlybuf4s25_1
*CAP
1 *743:C 0
2 *746:A 0.000172902
3 *755:X 0.000444436
4 *163:10 0.000617338
5 *746:A *624:B 4.9253e-06
6 *746:A *624:C 4.05996e-05
7 *746:A *165:59 4.82919e-05
8 *746:A *165:67 8.34997e-05
9 *163:10 *745:A 0
10 *681:A_N *163:10 0.000229825
11 *88:36 *746:A 0
12 *88:36 *163:10 0
13 *89:12 *163:10 0.00023468
14 *146:8 *746:A 7.81876e-05
15 *154:12 *746:A 1.89685e-05
16 *154:72 *746:A 8.07863e-05
17 *154:72 *163:10 0.000175855
*RES
1 *755:X *163:10 12.21 
2 *163:10 *746:A 7.935 
3 *163:10 *743:C 3.6 
*END

*D_NET *164 0.00212069
*CONN
*I *743:B I *D sky130_fd_sc_hd__or3_2
*I *745:A I *D sky130_fd_sc_hd__clkdlybuf4s25_1
*I *756:X O *D sky130_fd_sc_hd__clkdlybuf4s25_1
*CAP
1 *743:B 0.000186153
2 *745:A 0.000149756
3 *756:X 0.000305061
4 *164:12 0.00064097
5 *743:B *181:31 0.000122337
6 *743:B *181:40 8.57321e-05
7 *745:A *742:B 1.0183e-05
8 *745:A *181:10 4.11194e-05
9 *745:A *181:12 1.94892e-05
10 *164:12 *742:B 0
11 *164:12 *165:10 0
12 *164:12 *181:31 0.000123225
13 *164:12 *182:8 4.05358e-05
14 *614:B1 *164:12 0.000246872
15 *615:B *164:12 8.82557e-05
16 *88:10 *745:A 0
17 *88:36 *745:A 6.10014e-05
18 *163:10 *745:A 0
*RES
1 *756:X *164:12 11.03 
2 *164:12 *745:A 8.255 
3 *164:12 *743:B 4.12 
*END

*D_NET *165 0.00580096
*CONN
*I *624:A_N I *D sky130_fd_sc_hd__and3b_2
*I *617:A I *D sky130_fd_sc_hd__nor3b_2
*I *618:A I *D sky130_fd_sc_hd__and3_2
*I *621:C I *D sky130_fd_sc_hd__and3b_2
*I *742:A I *D sky130_fd_sc_hd__nor3_2
*I *625:C_N I *D sky130_fd_sc_hd__or3b_2
*I *743:A I *D sky130_fd_sc_hd__or3_2
*I *689:A I *D sky130_fd_sc_hd__nor3b_2
*I *612:A I *D sky130_fd_sc_hd__nand2_2
*I *757:X O *D sky130_fd_sc_hd__clkdlybuf4s25_1
*CAP
1 *624:A_N 0
2 *617:A 0
3 *618:A 0.000125469
4 *621:C 9.6832e-05
5 *742:A 0
6 *625:C_N 0.00015195
7 *743:A 0
8 *689:A 1.88809e-05
9 *612:A 0
10 *757:X 5.06588e-05
11 *165:71 0.000287511
12 *165:67 0.000310636
13 *165:59 0.000291944
14 *165:40 0.000318135
15 *165:29 0.000397139
16 *165:20 0.000285857
17 *165:14 0.000388626
18 *165:10 0.000412019
19 *618:A *624:C 4.8854e-05
20 *618:A *181:59 3.57349e-05
21 *618:A *181:69 4.66108e-05
22 *618:A *182:58 5.8322e-05
23 *618:A *182:60 2.20014e-05
24 *621:C *181:69 0
25 *621:C *182:30 8.88559e-05
26 *625:C_N *625:A 4.77757e-05
27 *625:C_N *180:20 7.08554e-05
28 *625:C_N *181:40 0.000232105
29 *165:10 *182:8 0
30 *165:14 *742:B 7.1988e-05
31 *165:14 *182:100 0.000111455
32 *165:14 *182:108 4.82863e-05
33 *165:29 *612:B 4.66108e-05
34 *165:40 *615:A 0
35 *165:40 *181:31 2.32597e-05
36 *165:40 *181:40 0.000111285
37 *165:67 *624:C 0.000211929
38 *165:71 *617:B 0
39 *165:71 *624:C 3.83194e-05
40 *615:B *689:A 5.4155e-06
41 *615:B *165:29 0.000161837
42 *615:B *165:40 4.21973e-05
43 *746:A *165:59 4.82919e-05
44 *746:A *165:67 8.34997e-05
45 *755:A *165:20 9.8153e-05
46 *768:A *618:A 0.000121019
47 *31:8 *625:C_N 5.06989e-05
48 *88:10 *165:29 0.000124007
49 *88:10 *165:40 1.16578e-05
50 *88:36 *165:10 9.54399e-05
51 *88:36 *165:40 0.000110673
52 *141:8 *165:20 0.000121152
53 *141:33 *621:C 9.54399e-05
54 *142:6 *625:C_N 2.75145e-05
55 *142:55 *625:C_N 4.08514e-05
56 *143:8 *165:29 4.0843e-05
57 *148:10 *621:C 7.23602e-05
58 *164:12 *165:10 0
*RES
1 *757:X *165:10 6.725 
2 *165:10 *165:14 4.95 
3 *165:14 *165:20 6.4 
4 *165:20 *612:A 1.6 
5 *165:20 *165:29 4.26 
6 *165:29 *689:A 1.96 
7 *165:29 *165:40 3.57 
8 *165:40 *743:A 1.6 
9 *165:40 *625:C_N 5.5 
10 *165:14 *742:A 1.6 
11 *165:10 *165:59 0.795 
12 *165:59 *165:67 4.29 
13 *165:67 *165:71 1.155 
14 *165:71 *621:C 7.55375 
15 *165:71 *618:A 4.465 
16 *165:67 *617:A 1.6 
17 *165:59 *624:A_N 1.6 
*END

*D_NET *166 0.00593306
*CONN
*I *704:B I *D sky130_fd_sc_hd__and2_2
*I *637:A1 I *D sky130_fd_sc_hd__a221o_2
*I *629:A1_N I *D sky130_fd_sc_hd__a2bb2o_2
*I *619:B2 I *D sky130_fd_sc_hd__a32o_2
*I *705:B I *D sky130_fd_sc_hd__or2_2
*I *708:B I *D sky130_fd_sc_hd__and2b_2
*I *706:B I *D sky130_fd_sc_hd__xnor2_2
*I *758:X O *D sky130_fd_sc_hd__clkdlybuf4s25_1
*CAP
1 *704:B 2.46881e-05
2 *637:A1 0.000197238
3 *629:A1_N 0
4 *619:B2 0.000572487
5 *705:B 0.000191182
6 *708:B 0
7 *706:B 6.61403e-05
8 *758:X 0.00011225
9 *166:68 0.000244055
10 *166:47 0.000762909
11 *166:34 0.000334786
12 *166:32 0.000103843
13 *166:23 0.000173648
14 *166:12 0.000272884
15 *619:B2 *188:40 0
16 *166:47 *733:A1 0.00011099
17 *623:B1 *619:B2 8.53113e-06
18 *627:A *619:B2 3.45679e-05
19 *627:B *619:B2 9.70713e-05
20 *627:B *637:A1 0.000471735
21 *627:B *166:68 6.6532e-05
22 *628:B2 *619:B2 0
23 *628:C1 *619:B2 0
24 *629:A2_N *637:A1 0.000295899
25 *629:B1 *637:A1 4.66108e-05
26 *630:C1 *637:A1 1.22544e-05
27 *630:C1 *166:68 2.53841e-05
28 *632:B1 *619:B2 0.000101214
29 *634:B1 *619:B2 9.10587e-05
30 *634:B1 *704:B 1.41186e-05
31 *634:B1 *166:12 1.22676e-05
32 *634:B1 *166:23 0.000198945
33 *634:B1 *166:32 0.000187281
34 *637:B2 *637:A1 2.49708e-05
35 *638:A2 *637:A1 9.53428e-06
36 *704:A *166:32 2.16917e-05
37 *706:A *706:B 5.05437e-05
38 *706:A *166:23 0.000159313
39 *707:A_N *619:B2 5.53461e-05
40 *712:B *637:A1 5.41418e-05
41 *733:A2 *166:47 0.000174279
42 *733:A2 *166:68 4.31106e-05
43 *748:A *166:12 1.83847e-05
44 *88:36 *619:B2 0.00026668
45 *104:8 *705:B 7.36562e-05
46 *104:8 *166:47 5.55694e-05
47 *156:22 *166:12 0
48 *156:31 *166:23 2.16917e-05
49 *156:31 *166:32 7.35729e-05
*RES
1 *758:X *166:12 7.175 
2 *166:12 *706:B 2.755 
3 *166:12 *166:23 2.865 
4 *166:23 *708:B 1.6 
5 *166:23 *166:32 2.445 
6 *166:32 *166:34 2 
7 *166:34 *705:B 6.45 
8 *166:34 *166:47 3.42 
9 *166:47 *619:B2 17.98 
10 *166:47 *166:68 3.2375 
11 *166:68 *629:A1_N 1.6 
12 *166:68 *637:A1 9.0325 
13 *166:32 *704:B 2.05 
*END

*D_NET *167 0.000758511
*CONN
*I *769:A I *D sky130_fd_sc_hd__dlymetal6s2s_1
*I *744:X O *D sky130_fd_sc_hd__a32o_2
*CAP
1 *769:A 0.000241254
2 *744:X 0.000241254
3 CARRY *769:A 0.000136079
4 *754:A *769:A 0.000139924
5 *162:8 *769:A 0
*RES
1 *744:X *769:A 12.12 
*END

*D_NET *168 0.000955219
*CONN
*I *770:A I *D sky130_fd_sc_hd__clkdlybuf4s25_1
*I *620:X O *D sky130_fd_sc_hd__or3_2
*CAP
1 *770:A 0.000319261
2 *620:X 0.000319261
3 *770:A *732:A 2.76356e-05
4 *770:A *188:6 3.64998e-06
5 *770:A *188:8 7.75195e-05
6 *620:A *770:A 4.93336e-05
7 *88:36 *770:A 0.000158559
*RES
1 *620:X *770:A 13.5 
*END

*D_NET *169 0.000561115
*CONN
*I *771:A I *D sky130_fd_sc_hd__clkdlybuf4s25_1
*I *632:X O *D sky130_fd_sc_hd__o22a_2
*CAP
1 *771:A 0.000280558
2 *632:X 0.000280558
*RES
1 *632:X *771:A 7.1 
*END

*D_NET *170 0.000782603
*CONN
*I *772:A I *D sky130_fd_sc_hd__clkdlybuf4s25_1
*I *640:X O *D sky130_fd_sc_hd__o22a_2
*CAP
1 *772:A 0.000342634
2 *640:X 0.000342634
3 *639:A2 *772:A 0
4 *640:A2 *772:A 4.01778e-05
5 *640:B2 *772:A 1.08758e-05
6 *734:A2 *772:A 0
7 *749:A *772:A 9.50342e-06
8 *109:22 *772:A 3.67779e-05
9 *157:12 *772:A 0
*RES
1 *640:X *772:A 12.015 
*END

*D_NET *171 0.00078302
*CONN
*I *773:A I *D sky130_fd_sc_hd__clkdlybuf4s25_1
*I *651:X O *D sky130_fd_sc_hd__o2bb2a_2
*CAP
1 *773:A 0.000290372
2 *651:X 0.000290372
3 *773:A *650:A1 4.77807e-05
4 *773:A *183:22 0.000107883
5 *650:A3 *773:A 4.66108e-05
*RES
1 *651:X *773:A 7.82 
*END

*D_NET *172 0.00245517
*CONN
*I *774:A I *D sky130_fd_sc_hd__clkdlybuf4s25_1
*I *660:X O *D sky130_fd_sc_hd__o41a_2
*CAP
1 *774:A 0.000613859
2 *660:X 0.000613859
3 *774:A *184:59 9.21592e-05
4 *660:A1 *774:A 0.00101464
5 *119:35 *774:A 0.000120655
*RES
1 *660:X *774:A 14.96 
*END

*D_NET *173 0.000708585
*CONN
*I *775:A I *D sky130_fd_sc_hd__clkdlybuf4s25_1
*I *669:X O *D sky130_fd_sc_hd__a31o_2
*CAP
1 *775:A 0.000311165
2 *669:X 0.000311165
3 *661:A *775:A 5.83121e-06
4 *699:A *775:A 4.66108e-05
5 *96:10 *775:A 3.3814e-05
*RES
1 *669:X *775:A 7.46 
*END

*D_NET *174 0.000826406
*CONN
*I *776:A I *D sky130_fd_sc_hd__clkdlybuf4s25_1
*I *678:X O *D sky130_fd_sc_hd__o22a_2
*CAP
1 *776:A 0.000294116
2 *678:X 0.000294116
3 *670:B *776:A 4.61744e-05
4 *94:35 *776:A 0
5 *126:45 *776:A 0.000192
*RES
1 *678:X *776:A 12.795 
*END

*D_NET *175 0.000321689
*CONN
*I *777:A I *D sky130_fd_sc_hd__clkbuf_2
*I *686:X O *D sky130_fd_sc_hd__o22a_2
*CAP
1 *777:A 0.000158752
2 *686:X 0.000158752
3 *126:45 *777:A 4.18603e-06
4 *161:10 *777:A 0
*RES
1 *686:X *777:A 9.465 
*END

*D_NET *176 0.0101153
*CONN
*I *669:A1 I *D sky130_fd_sc_hd__a31o_2
*I *651:A1_N I *D sky130_fd_sc_hd__o2bb2a_2
*I *639:C1 I *D sky130_fd_sc_hd__a211o_2
*I *657:C1 I *D sky130_fd_sc_hd__a211o_2
*I *677:C1 I *D sky130_fd_sc_hd__a211o_2
*I *766:X O *D sky130_fd_sc_hd__clkbuf_2
*CAP
1 *669:A1 0.000261687
2 *651:A1_N 1.8759e-05
3 *639:C1 0.000492933
4 *657:C1 9.1394e-05
5 *677:C1 0.000283008
6 *766:X 0.000907679
7 *176:54 0.00126614
8 *176:50 0.00145146
9 *176:35 0.000841672
10 *176:14 0.00150564
11 *639:C1 *183:22 0.000196699
12 *651:A1_N *183:22 8.49152e-05
13 *657:C1 *657:A1 0
14 *176:35 *657:A1 0
15 *176:54 *184:35 0
16 *639:A1 *639:C1 0.000164874
17 *639:B1 *639:C1 0
18 *651:A2_N *639:C1 0
19 *651:A2_N *176:54 2.68111e-05
20 *651:B1 *639:C1 4.90291e-05
21 *651:B2 *639:C1 5.09431e-05
22 *651:B2 *651:A1_N 4.27109e-05
23 *656:A1 *176:50 6.20088e-05
24 *656:B1 *176:35 1.88602e-05
25 *656:B2 *176:50 7.60965e-05
26 *657:B1 *657:C1 0.000139238
27 *659:A1 *176:54 0
28 *661:A *669:A1 2.66362e-05
29 *661:B *669:A1 0
30 *663:A *669:A1 0
31 *663:A *176:54 0
32 *664:B1 *677:C1 1.0183e-05
33 *664:B1 *176:35 0
34 *667:C1 *176:54 0
35 *669:A2 *669:A1 2.66362e-05
36 *669:A3 *669:A1 9.52156e-05
37 *669:B1 *669:A1 7.3664e-05
38 *673:B *677:C1 0.000232681
39 *677:A2 *677:C1 0
40 *677:A2 *176:35 0.000267357
41 *677:B1 *677:C1 0.000116165
42 *683:B1 *176:14 5.02217e-05
43 *718:A *176:54 0
44 *719:A *176:54 0
45 *720:B *657:C1 0
46 *721:A *176:54 0
47 *722:B *176:54 0
48 *735:A2 *639:C1 0
49 *737:A1 *176:50 3.63745e-05
50 *737:A2 *176:50 4.82863e-05
51 *737:B1 *176:50 4.82919e-05
52 *738:C1 *669:A1 0
53 *99:14 *669:A1 0
54 *99:16 *669:A1 0
55 *108:8 *639:C1 9.66021e-05
56 *108:12 *639:C1 4.43871e-06
57 *117:22 *176:54 0
58 *117:35 *669:A1 0
59 *119:29 *176:54 0
60 *119:63 *176:54 0
61 *119:79 *657:C1 0
62 *119:79 *176:35 0
63 *119:81 *176:50 4.35348e-05
64 *130:21 *639:C1 0
65 *136:8 *669:A1 0
66 *146:89 *176:35 0
67 *154:81 *176:14 0.000906491
*RES
1 *766:X *176:14 17.975 
2 *176:14 *677:C1 12.335 
3 *176:14 *176:35 7.625 
4 *176:35 *657:C1 5.49 
5 *176:35 *176:50 11.005 
6 *176:50 *176:54 13.835 
7 *176:54 *639:C1 15.395 
8 *176:54 *651:A1_N 2.4025 
9 *176:50 *669:A1 8.55 
*END

*D_NET *177 0.00594194
*CONN
*I *647:A1 I *D sky130_fd_sc_hd__a221o_2
*I *635:A I *D sky130_fd_sc_hd__nor2_2
*I *630:A1 I *D sky130_fd_sc_hd__a2111o_2
*I *711:B I *D sky130_fd_sc_hd__or2_2
*I *714:B I *D sky130_fd_sc_hd__and2b_2
*I *710:B I *D sky130_fd_sc_hd__and2_2
*I *759:X O *D sky130_fd_sc_hd__clkdlybuf4s25_1
*CAP
1 *647:A1 0.000329975
2 *635:A 1.57953e-05
3 *630:A1 0.000153857
4 *711:B 0
5 *714:B 6.06345e-05
6 *710:B 3.55506e-05
7 *759:X 0.000374964
8 *177:47 0.000441966
9 *177:41 0.000806994
10 *177:30 0.000244417
11 *177:14 0.00017402
12 *177:10 0.000492511
13 *647:A1 *638:B2 0.00020297
14 *647:A1 *644:B 5.13924e-05
15 *627:B *177:41 0.000158297
16 *630:A2 *630:A1 0.000219725
17 *630:A2 *635:A 9.13949e-06
18 *630:A2 *177:47 4.85381e-05
19 *630:B1 *630:A1 2.23611e-05
20 *634:B1 *710:B 0
21 *634:B1 *714:B 0.000227261
22 *634:B1 *177:14 0.000467074
23 *635:B *177:47 0.000182816
24 *638:B1 *647:A1 8.23457e-05
25 *638:B1 *177:47 0.000112124
26 *638:C1 *647:A1 8.40213e-05
27 *640:A1 *647:A1 0
28 *654:B *647:A1 3.96421e-05
29 *659:B1 *647:A1 0
30 *710:A *714:B 4.82863e-05
31 *711:A *714:B 3.23663e-05
32 *711:A *177:14 8.79923e-05
33 *712:A_N *647:A1 5.4003e-05
34 *734:A1 *177:14 0.000163204
35 *734:A2 *177:30 5.53249e-06
36 *734:A2 *177:41 9.16315e-05
37 *734:B1 *177:14 5.30673e-05
38 *110:26 *177:41 0
39 *111:8 *647:A1 9.80943e-06
40 *111:14 *177:41 0.000307361
41 *111:35 *177:41 1.94892e-05
42 *133:14 *177:41 0
43 *142:25 *647:A1 3.0807e-05
*RES
1 *759:X *177:10 7.935 
2 *177:10 *177:14 6.245 
3 *177:14 *710:B 2.215 
4 *177:14 *714:B 3.775 
5 *177:10 *177:30 0.615 
6 *177:30 *711:B 3.6 
7 *177:30 *177:41 7.46 
8 *177:41 *177:47 4.365 
9 *177:47 *630:A1 4.48 
10 *177:47 *635:A 1.96 
11 *177:41 *647:A1 11.375 
*END

*D_NET *178 0.00192536
*CONN
*I *623:A1 I *D sky130_fd_sc_hd__a21oi_2
*I *631:A I *D sky130_fd_sc_hd__xor2_2
*I *622:A1 I *D sky130_fd_sc_hd__o21ai_2
*I *709:A1 I *D sky130_fd_sc_hd__a21o_2
*I *767:X O *D sky130_fd_sc_hd__clkbuf_2
*CAP
1 *623:A1 0
2 *631:A 0.00030496
3 *622:A1 0
4 *709:A1 6.50511e-05
5 *767:X 3.79212e-05
6 *178:27 0.000403399
7 *178:14 0.000235867
8 *178:6 0.000110297
9 *631:A *188:40 0
10 *178:27 *707:B 4.70343e-05
11 *634:B1 *178:27 0
12 *709:B1 *709:A1 4.82863e-05
13 *709:B1 *178:6 0.000228149
14 *709:B1 *178:14 4.99619e-05
15 *732:B *631:A 3.33763e-05
16 *106:14 *631:A 3.09164e-05
17 *106:14 *178:27 0.000159957
18 *108:8 *178:6 0.000142661
19 *108:8 *178:14 2.75229e-05
*RES
1 *767:X *178:6 3.775 
2 *178:6 *178:14 3.4775 
3 *178:14 *709:A1 4.5375 
4 *178:14 *178:27 2.2725 
5 *178:27 *622:A1 3.6 
6 *178:27 *631:A 8.58 
7 *178:6 *623:A1 1.6 
*END

*D_NET *179 0.0109813
*CONN
*I *668:A1 I *D sky130_fd_sc_hd__a41o_2
*I *653:C I *D sky130_fd_sc_hd__and3b_2
*I *650:A1 I *D sky130_fd_sc_hd__a31o_2
*I *671:A I *D sky130_fd_sc_hd__nand2_2
*I *685:A1 I *D sky130_fd_sc_hd__a31o_2
*I *778:X O *D sky130_fd_sc_hd__clkbuf_2
*CAP
1 *668:A1 0
2 *653:C 1.24783e-05
3 *650:A1 0.000331251
4 *671:A 0
5 *685:A1 0.000129683
6 *778:X 0.000151252
7 *179:62 0.000535928
8 *179:60 0.000772287
9 *179:45 0.00199165
10 *179:10 0.00169249
11 *650:A1 *701:A_N 0.000111293
12 *179:45 *728:B 0.000312546
13 *179:60 *725:B 0
14 *179:60 *185:59 0
15 *179:60 *185:68 0
16 *650:B1 *650:A1 9.10613e-05
17 *653:B *650:A1 0.000118527
18 *660:A1 *653:C 1.42681e-05
19 *668:A4 *179:60 3.09164e-05
20 *668:A4 *179:62 0.000159964
21 *671:B *179:60 4.82863e-05
22 *672:B1 *179:60 6.07575e-06
23 *673:A_N *179:45 0.00011964
24 *673:B *179:45 4.66108e-05
25 *678:A1 *179:45 0.000292402
26 *679:A *179:10 6.65395e-05
27 *679:B *179:45 0.000180463
28 *685:A2 *685:A1 4.43871e-06
29 *685:B1 *685:A1 3.25831e-05
30 *686:A2 *179:45 8.91934e-05
31 *686:B1 *179:45 9.49063e-05
32 *686:B2 *685:A1 0
33 *686:B2 *179:10 0
34 *686:B2 *179:45 8.44986e-05
35 *699:B *179:60 0.000117832
36 *723:A *650:A1 5.62235e-05
37 *723:B *650:A1 8.58636e-05
38 *723:B *179:62 4.40899e-05
39 *723:C_N *650:A1 3.5998e-05
40 *726:A *179:60 0
41 *727:A3 *179:60 7.89767e-05
42 *731:A *650:A1 7.05878e-05
43 *741:A2 *685:A1 8.6099e-05
44 *741:A2 *179:10 2.62957e-05
45 *773:A *650:A1 4.77807e-05
46 *91:17 *685:A1 2.75229e-05
47 *91:25 *685:A1 0
48 *94:52 *179:45 0.000274756
49 *94:52 *179:60 3.83041e-05
50 *98:10 *179:60 4.83328e-05
51 *98:10 *179:62 4.40643e-05
52 *115:8 *650:A1 2.29031e-05
53 *122:10 *650:A1 9.09787e-05
54 *122:10 *179:62 0.000461103
55 *122:29 *179:60 0.00056539
56 *122:29 *179:62 9.50342e-06
57 *123:12 *179:62 0
58 *123:25 *179:60 0
59 *125:10 *179:60 7.53115e-05
60 *126:12 *179:60 0.000340033
61 *126:45 *179:45 0.000590702
62 *142:55 *685:A1 0
63 *158:18 *650:A1 0.000221463
64 *159:12 *179:62 0
*RES
1 *778:X *179:10 6.21 
2 *179:10 *685:A1 6.195 
3 *179:10 *179:45 28.4 
4 *179:45 *671:A 1.6 
5 *179:45 *179:60 16.745 
6 *179:60 *179:62 5.46 
7 *179:62 *650:A1 12.615 
8 *179:62 *653:C 3.81375 
9 *179:60 *668:A1 3.6 
*END

*D_NET *180 0.00675278
*CONN
*I *656:A2 I *D sky130_fd_sc_hd__a22o_2
*I *665:A2 I *D sky130_fd_sc_hd__a211o_2
*I *676:A2 I *D sky130_fd_sc_hd__a211o_2
*I *684:A2 I *D sky130_fd_sc_hd__a211o_2
*I *768:X O *D sky130_fd_sc_hd__buf_1
*CAP
1 *656:A2 0.000301339
2 *665:A2 2.13698e-05
3 *676:A2 0.000874608
4 *684:A2 0.000282537
5 *768:X 0
6 *180:56 0.000633517
7 *180:20 0.00164154
8 *180:4 0.000795209
9 *676:A2 *675:A1 2.60185e-06
10 *684:A2 *683:A1_N 6.25711e-06
11 *684:A2 *688:B 0
12 *684:A2 *187:47 6.09658e-05
13 *180:20 *181:46 1.70935e-05
14 *625:C_N *180:20 7.08554e-05
15 *657:B1 *656:A2 2.92e-05
16 *665:A1 *656:A2 0.000284975
17 *665:B1 *665:A2 2.04009e-05
18 *666:C1 *180:56 8.73389e-06
19 *674:B1 *676:A2 1.17409e-05
20 *676:B1 *676:A2 1.51429e-05
21 *683:A2_N *676:A2 0.000278027
22 *683:B2 *676:A2 7.23602e-05
23 *684:A1 *684:A2 3.95724e-05
24 *684:C1 *684:A2 0.000197563
25 *686:B1 *676:A2 7.06865e-05
26 *768:A *180:56 2.49909e-05
27 *31:8 *180:20 1.16854e-05
28 *31:8 *180:56 2.59037e-05
29 *31:23 *180:56 0.000116908
30 *32:8 *180:56 3.51072e-05
31 *97:31 *676:A2 5.83121e-06
32 *141:33 *180:20 2.16306e-05
33 *142:55 *180:20 0.000460449
34 *146:89 *676:A2 0.000261321
35 *149:84 *665:A2 5.26518e-05
*RES
1 *768:X *180:4 1.6 
2 *180:4 *180:20 13.84 
3 *180:20 *684:A2 6.235 
4 *180:20 *676:A2 17.42 
5 *180:4 *180:56 4.935 
6 *180:56 *665:A2 6.215 
7 *180:56 *656:A2 7.7725 
*END

*D_NET *181 0.00804861
*CONN
*I *689:B I *D sky130_fd_sc_hd__nor3b_2
*I *625:A I *D sky130_fd_sc_hd__or3b_2
*I *618:B I *D sky130_fd_sc_hd__and3_2
*I *617:C_N I *D sky130_fd_sc_hd__nor3b_2
*I *621:B I *D sky130_fd_sc_hd__and3b_2
*I *613:S I *D sky130_fd_sc_hd__mux2_1
*I *646:A I *D sky130_fd_sc_hd__or3_2
*I *624:B I *D sky130_fd_sc_hd__and3b_2
*I *615:A I *D sky130_fd_sc_hd__or2_2
*I *742:B I *D sky130_fd_sc_hd__nor3_2
*I *745:X O *D sky130_fd_sc_hd__clkdlybuf4s25_1
*CAP
1 *689:B 0
2 *625:A 1.99357e-05
3 *618:B 0
4 *617:C_N 0
5 *621:B 8.8864e-05
6 *613:S 0.000529589
7 *646:A 0.000186658
8 *624:B 0.00020035
9 *615:A 1.309e-05
10 *742:B 0.000253075
11 *745:X 0.000167678
12 *181:71 0.000776863
13 *181:69 0.000307364
14 *181:59 0.000246814
15 *181:55 0.000369574
16 *181:46 0.000519042
17 *181:40 0.000217483
18 *181:31 0.000241717
19 *181:12 0.000352505
20 *181:10 0.000197979
21 *621:B *182:30 7.87003e-05
22 *624:B *624:C 0.000142865
23 *646:A *646:B 1.77665e-05
24 *742:B *182:100 0.000122331
25 *742:B *182:108 4.66108e-05
26 *181:46 *625:B 7.23602e-05
27 *181:55 *624:C 4.25093e-05
28 *181:55 *182:58 0.00013117
29 *181:55 *182:60 2.68526e-05
30 *181:59 *618:C 2.64607e-05
31 *181:59 *182:58 8.23457e-05
32 *181:69 *182:58 4.66108e-05
33 *614:B1 *742:B 0
34 *614:B1 *181:12 0
35 *615:B *615:A 1.31519e-05
36 *615:B *181:31 0.000166056
37 *618:A *181:59 3.57349e-05
38 *618:A *181:69 4.66108e-05
39 *620:A *613:S 9.13235e-05
40 *620:B *613:S 0.000122331
41 *621:C *181:69 0
42 *625:C_N *625:A 4.77757e-05
43 *625:C_N *181:40 0.000232105
44 *628:A2 *646:A 0.000156916
45 *743:B *181:31 0.000122337
46 *743:B *181:40 8.57321e-05
47 *745:A *742:B 1.0183e-05
48 *745:A *181:10 4.11194e-05
49 *745:A *181:12 1.94892e-05
50 *746:A *624:B 4.9253e-06
51 *768:A *181:46 0
52 *768:A *181:69 4.86642e-05
53 *88:10 *181:10 7.06865e-05
54 *88:36 *742:B 0
55 *141:8 *181:10 0
56 *141:27 *181:10 0.00016063
57 *141:33 *181:46 0.000116853
58 *141:33 *181:69 0
59 *146:23 *613:S 0.000173068
60 *151:8 *621:B 0.000122199
61 *151:10 *646:A 4.4225e-05
62 *151:10 *181:71 9.37731e-05
63 *151:74 *181:69 0.000129985
64 *151:74 *181:71 2.07184e-05
65 *164:12 *742:B 0
66 *164:12 *181:31 0.000123225
67 *165:14 *742:B 7.1988e-05
68 *165:40 *615:A 0
69 *165:40 *181:31 2.32597e-05
70 *165:40 *181:40 0.000111285
71 *180:20 *181:46 1.70935e-05
*RES
1 *745:X *181:10 6.465 
2 *181:10 *181:12 0.615 
3 *181:12 *742:B 8.115 
4 *181:12 *181:31 4.535 
5 *181:31 *615:A 1.96 
6 *181:31 *181:40 3.9 
7 *181:40 *181:46 5.38 
8 *181:46 *624:B 4.12 
9 *181:46 *181:55 3.555 
10 *181:55 *181:59 2.01 
11 *181:59 *181:69 5.405 
12 *181:69 *181:71 1.38 
13 *181:71 *646:A 7.14 
14 *181:71 *613:S 12.345 
15 *181:69 *621:B 5.79 
16 *181:59 *617:C_N 1.6 
17 *181:55 *618:B 1.6 
18 *181:40 *625:A 2.05 
19 *181:10 *689:B 3.6 
*END

*D_NET *182 0.00617462
*CONN
*I *742:C I *D sky130_fd_sc_hd__nor3_2
*I *689:C_N I *D sky130_fd_sc_hd__nor3b_2
*I *612:B I *D sky130_fd_sc_hd__nand2_2
*I *617:B I *D sky130_fd_sc_hd__nor3b_2
*I *625:B I *D sky130_fd_sc_hd__or3b_2
*I *624:C I *D sky130_fd_sc_hd__and3b_2
*I *618:C I *D sky130_fd_sc_hd__and3_2
*I *646:B I *D sky130_fd_sc_hd__or3_2
*I *621:A_N I *D sky130_fd_sc_hd__and3b_2
*I *613:A1 I *D sky130_fd_sc_hd__mux2_1
*I *746:X O *D sky130_fd_sc_hd__clkdlybuf4s25_1
*CAP
1 *742:C 0
2 *689:C_N 0
3 *612:B 1.36534e-05
4 *617:B 2.09559e-05
5 *625:B 0.000110792
6 *624:C 0.000110998
7 *618:C 3.77688e-05
8 *646:B 0.000252548
9 *621:A_N 0
10 *613:A1 0.00012909
11 *746:X 7.66125e-05
12 *182:108 8.51368e-05
13 *182:100 9.45316e-05
14 *182:60 0.000232741
15 *182:58 0.000143098
16 *182:43 0.0002008
17 *182:30 0.000549782
18 *182:21 0.00070034
19 *182:8 0.0006376
20 *614:B1 *613:A1 8.76986e-05
21 *614:B1 *182:8 5.12017e-06
22 *614:B1 *182:108 0.000183738
23 *618:A *624:C 4.8854e-05
24 *618:A *182:58 5.8322e-05
25 *618:A *182:60 2.20014e-05
26 *621:B *182:30 7.87003e-05
27 *621:C *182:30 8.88559e-05
28 *624:B *624:C 0.000142865
29 *628:A2 *646:B 0.000202135
30 *646:A *646:B 1.77665e-05
31 *646:C *646:B 2.62458e-05
32 *649:C_N *646:B 9.12494e-06
33 *742:B *182:100 0.000122331
34 *742:B *182:108 4.66108e-05
35 *746:A *624:C 4.05996e-05
36 *88:36 *613:A1 0
37 *88:36 *182:8 0
38 *141:8 *182:108 0.000206123
39 *141:33 *625:B 2.24402e-05
40 *143:8 *612:B 4.66108e-05
41 *151:8 *182:30 8.73389e-06
42 *151:10 *646:B 0.00013959
43 *151:74 *646:B 9.84957e-05
44 *151:74 *182:43 8.69157e-05
45 *151:74 *182:58 6.28498e-05
46 *164:12 *182:8 4.05358e-05
47 *165:10 *182:8 0
48 *165:14 *182:100 0.000111455
49 *165:14 *182:108 4.82863e-05
50 *165:29 *612:B 4.66108e-05
51 *165:67 *624:C 0.000211929
52 *165:71 *617:B 0
53 *165:71 *624:C 3.83194e-05
54 *181:46 *625:B 7.23602e-05
55 *181:55 *624:C 4.25093e-05
56 *181:55 *182:58 0.00013117
57 *181:55 *182:60 2.68526e-05
58 *181:59 *618:C 2.64607e-05
59 *181:59 *182:58 8.23457e-05
60 *181:69 *182:58 4.66108e-05
*RES
1 *746:X *182:8 4.725 
2 *182:8 *613:A1 6 
3 *182:8 *182:21 7.97 
4 *182:21 *621:A_N 1.6 
5 *182:21 *182:30 5.9 
6 *182:30 *646:B 9.255 
7 *182:30 *182:43 1.125 
8 *182:43 *618:C 4.05 
9 *182:43 *182:58 5.045 
10 *182:58 *182:60 0.45 
11 *182:60 *624:C 5.49625 
12 *182:60 *625:B 7.535 
13 *182:58 *617:B 1.96 
14 *746:X *182:100 2.74 
15 *182:100 *182:108 6.85 
16 *182:108 *612:B 2.05 
17 *182:108 *689:C_N 1.6 
18 *182:100 *742:C 1.6 
*END

*D_NET *183 0.00678177
*CONN
*I *703:B I *D sky130_fd_sc_hd__and2b_2
*I *701:A_N I *D sky130_fd_sc_hd__nand2b_2
*I *730:B I *D sky130_fd_sc_hd__nand2_2
*I *644:B I *D sky130_fd_sc_hd__or2_2
*I *638:B2 I *D sky130_fd_sc_hd__a221o_2
*I *645:A I *D sky130_fd_sc_hd__nor2_2
*I *655:B2 I *D sky130_fd_sc_hd__a2bb2o_2
*I *648:A2 I *D sky130_fd_sc_hd__a32o_2
*I *760:X O *D sky130_fd_sc_hd__clkdlybuf4s25_1
*CAP
1 *703:B 0
2 *701:A_N 9.1763e-05
3 *730:B 0
4 *644:B 0.000100507
5 *638:B2 0.000165563
6 *645:A 0
7 *655:B2 4.43814e-05
8 *648:A2 0
9 *760:X 0.000131049
10 *183:59 0.000286203
11 *183:34 0.000185375
12 *183:30 0.000249378
13 *183:26 0.000404315
14 *183:22 0.00066
15 *183:12 0.000596873
16 *183:6 0.000251959
17 *637:A2 *183:34 5.13924e-05
18 *638:A2 *638:B2 2.66464e-05
19 *638:B1 *638:B2 1.34967e-05
20 *638:C1 *638:B2 7.36484e-05
21 *639:C1 *183:22 0.000196699
22 *647:A1 *638:B2 0.00020297
23 *647:A1 *644:B 5.13924e-05
24 *647:A2 *183:26 3.50113e-05
25 *647:A2 *183:30 2.01438e-05
26 *647:B1 *638:B2 2.98644e-05
27 *647:B1 *644:B 6.30012e-05
28 *647:B1 *183:26 5.83121e-06
29 *647:B1 *183:30 2.49909e-05
30 *647:B2 *644:B 5.26831e-05
31 *647:B2 *183:30 1.18271e-05
32 *647:C1 *183:30 0.00011138
33 *650:A1 *701:A_N 0.000111293
34 *650:A2 *701:A_N 6.38012e-05
35 *650:A2 *183:12 0.000135464
36 *650:A3 *183:22 4.66108e-05
37 *650:B1 *644:B 4.77807e-05
38 *650:B1 *701:A_N 6.91333e-05
39 *651:A1_N *183:22 8.49152e-05
40 *651:B1 *183:22 4.04857e-05
41 *651:B1 *183:26 0.000570668
42 *651:B2 *183:22 0.000130339
43 *654:B *644:B 3.99951e-05
44 *654:B *183:26 6.04372e-05
45 *654:B *183:30 2.49909e-05
46 *703:A_N *183:12 0
47 *712:A_N *638:B2 3.94614e-05
48 *712:B *638:B2 9.3062e-06
49 *730:A *644:B 4.77807e-05
50 *731:A *701:A_N 9.12494e-06
51 *731:B *183:12 4.82919e-05
52 *735:B1 *183:26 5.09431e-05
53 *773:A *183:22 0.000107883
54 *31:31 *638:B2 0
55 *109:22 *638:B2 1.71013e-05
56 *115:8 *701:A_N 5.15415e-05
57 *146:27 *655:B2 4.47887e-05
58 *146:27 *183:34 0.000201807
59 *146:29 *183:34 5.31158e-06
60 *151:40 *655:B2 0.000112087
61 *151:40 *183:34 0.000318407
62 *154:36 *183:30 0.000153675
*RES
1 *760:X *183:6 3.43 
2 *183:6 *183:12 4.43 
3 *183:12 *183:22 9.395 
4 *183:22 *183:26 7.02 
5 *183:26 *183:30 3.225 
6 *183:30 *183:34 6.44 
7 *183:34 *648:A2 3.6 
8 *183:34 *655:B2 4.98 
9 *183:30 *645:A 1.6 
10 *183:26 *183:59 2.36 
11 *183:59 *638:B2 7.515 
12 *183:59 *644:B 6.195 
13 *183:22 *730:B 1.6 
14 *183:12 *701:A_N 6.195 
15 *183:6 *703:B 1.6 
*END

*D_NET *184 0.00747704
*CONN
*I *667:A2 I *D sky130_fd_sc_hd__a211o_2
*I *718:B I *D sky130_fd_sc_hd__and2_2
*I *719:B I *D sky130_fd_sc_hd__nor2_2
*I *655:A1_N I *D sky130_fd_sc_hd__a2bb2o_2
*I *666:B2 I *D sky130_fd_sc_hd__a221o_2
*I *648:B2 I *D sky130_fd_sc_hd__a32o_2
*I *724:C_N I *D sky130_fd_sc_hd__or3b_2
*I *761:X O *D sky130_fd_sc_hd__clkdlybuf4s25_1
*CAP
1 *667:A2 0
2 *718:B 0
3 *719:B 0
4 *655:A1_N 0
5 *666:B2 0.000427984
6 *648:B2 8.40331e-05
7 *724:C_N 0
8 *761:X 0.000252972
9 *184:63 0.000678255
10 *184:59 0.000591807
11 *184:45 0.000577771
12 *184:35 0.000445933
13 *184:23 0.000569046
14 *184:10 0.000528287
15 *666:B2 *666:A1 2.35384e-05
16 Y[4] *184:10 0
17 *654:B *184:59 2.97004e-06
18 *657:A2 *666:B2 0
19 *660:A1 *184:59 0.000278127
20 *660:A2 *184:59 0
21 *660:A3 *184:59 3.56402e-05
22 *660:B1 *184:59 0
23 *663:A *184:35 0.000391067
24 *665:B1 *666:B2 0
25 *666:B1 *666:B2 6.49505e-05
26 *667:A1 *184:23 8.40269e-05
27 *667:A1 *184:35 2.8694e-05
28 *667:B1 *184:35 4.66826e-05
29 *667:C1 *184:35 0.000186099
30 *668:A4 *184:23 4.82919e-05
31 *683:B1 *666:B2 0
32 *720:A *184:35 8.8266e-05
33 *720:A *184:45 0.000101031
34 *720:B *184:45 0.000136884
35 *723:B *184:10 0
36 *751:A *184:23 0
37 *774:A *184:59 9.21592e-05
38 *31:23 *666:B2 0.000203491
39 *31:31 *648:B2 0
40 *31:31 *666:B2 0
41 *119:8 *184:45 4.66108e-05
42 *119:10 *184:45 0.000114492
43 *119:79 *184:45 2.07184e-05
44 *123:12 *184:10 4.58406e-05
45 *123:12 *184:23 0.000100308
46 *146:27 *648:B2 3.32517e-05
47 *146:68 *184:63 5.49536e-05
48 *146:76 *666:B2 0
49 *146:76 *184:59 0
50 *149:10 *648:B2 5.7989e-05
51 *149:10 *666:B2 0.00013651
52 *149:84 *666:B2 0.000285875
53 *151:29 *184:63 0.000160342
54 *151:40 *184:63 8.52972e-05
55 *159:18 *184:35 0.000318548
56 *159:18 *184:45 4.82919e-05
57 *176:54 *184:35 0
*RES
1 *761:X *184:10 7.725 
2 *184:10 *724:C_N 3.6 
3 *184:10 *184:23 7.01 
4 *184:23 *184:35 13.27 
5 *184:35 *184:45 7.825 
6 *184:45 *184:59 12.355 
7 *184:59 *184:63 5.285 
8 *184:63 *648:B2 5.49 
9 *184:63 *666:B2 13.155 
10 *184:59 *655:A1_N 1.6 
11 *184:45 *719:B 1.6 
12 *184:35 *718:B 1.6 
13 *184:23 *667:A2 1.6 
*END

*D_NET *185 0.00748914
*CONN
*I *725:B I *D sky130_fd_sc_hd__and2b_2
*I *696:B I *D sky130_fd_sc_hd__nand2_2
*I *698:B I *D sky130_fd_sc_hd__or2_4
*I *657:A1 I *D sky130_fd_sc_hd__a211o_2
*I *664:A1_N I *D sky130_fd_sc_hd__a2bb2o_2
*I *675:B2 I *D sky130_fd_sc_hd__a22o_2
*I *762:X O *D sky130_fd_sc_hd__clkdlybuf4s25_1
*CAP
1 *725:B 0.000199868
2 *696:B 0.000125502
3 *698:B 0
4 *657:A1 0.000253671
5 *664:A1_N 0
6 *675:B2 0.000248087
7 *762:X 9.20457e-05
8 *185:68 0.000367395
9 *185:59 0.00021433
10 *185:22 0.000338746
11 *185:16 0.00117488
12 *185:6 0.00109491
13 *675:B2 *666:A1 0.000335149
14 *675:B2 *186:29 8.53113e-06
15 Y[5] *185:59 0
16 *657:A2 *657:A1 0.000203178
17 *657:B1 *657:A1 0
18 *657:C1 *657:A1 0
19 *660:A4 *657:A1 1.61831e-05
20 *662:A *185:16 6.40489e-05
21 *662:B *185:16 9.66106e-05
22 *663:A *657:A1 0.000239813
23 *668:B1 *675:B2 3.45438e-05
24 *668:B1 *185:16 0.000496143
25 *668:B1 *185:22 6.22889e-05
26 *669:A3 *185:16 4.82863e-05
27 *669:B1 *185:16 0.000198051
28 *675:A2 *675:B2 0.000132088
29 *698:A *696:B 2.0514e-05
30 *699:B *185:59 4.61744e-05
31 *720:A *657:A1 0
32 *725:A_N *725:B 0.000105988
33 *727:A3 *725:B 7.89767e-05
34 *738:A2 *185:16 0.000231628
35 *738:C1 *185:16 6.52265e-05
36 *98:10 *185:59 7.23602e-05
37 *123:12 *185:6 4.35348e-05
38 *123:12 *185:16 0.000126584
39 *123:25 *185:16 9.06015e-05
40 *125:10 *725:B 3.24046e-05
41 *137:10 *185:16 2.11084e-05
42 *146:76 *657:A1 0.000181414
43 *146:89 *657:A1 5.53249e-06
44 *160:14 *696:B 8.09809e-05
45 *160:14 *725:B 0.000210846
46 *160:14 *185:68 3.09164e-05
47 *176:35 *657:A1 0
48 *179:60 *725:B 0
49 *179:60 *185:59 0
50 *179:60 *185:68 0
*RES
1 *762:X *185:6 2.74 
2 *185:6 *185:16 16.125 
3 *185:16 *185:22 1.7775 
4 *185:22 *675:B2 11.1875 
5 *185:22 *664:A1_N 1.6 
6 *185:16 *657:A1 12.065 
7 *185:6 *185:59 5.165 
8 *185:59 *698:B 3.6 
9 *185:59 *185:68 0.87 
10 *185:68 *696:B 5.805 
11 *185:68 *725:B 8.58 
*END

*D_NET *186 0.00443025
*CONN
*I *694:B I *D sky130_fd_sc_hd__and2_2
*I *728:B I *D sky130_fd_sc_hd__nand2b_2
*I *674:A1 I *D sky130_fd_sc_hd__o21ai_2
*I *682:A1 I *D sky130_fd_sc_hd__a21o_2
*I *666:A1 I *D sky130_fd_sc_hd__a221o_2
*I *693:B I *D sky130_fd_sc_hd__nor2_2
*I *763:X O *D sky130_fd_sc_hd__clkdlybuf4s25_1
*CAP
1 *694:B 0
2 *728:B 7.521e-05
3 *674:A1 0
4 *682:A1 7.26065e-05
5 *666:A1 0.000301264
6 *693:B 2.75718e-05
7 *763:X 0.000447887
8 *186:60 7.521e-05
9 *186:29 0.000547068
10 *186:23 0.000301489
11 *186:12 0.000280321
12 *186:10 0.000572344
13 *682:A1 *675:A1 2.07836e-05
14 *665:C1 *666:A1 0
15 *666:B2 *666:A1 2.35384e-05
16 *668:B1 *666:A1 3.26889e-05
17 *673:A_N *186:10 9.50342e-06
18 *673:A_N *186:12 0.000203769
19 *673:A_N *186:23 8.53113e-06
20 *674:B1 *186:23 0
21 *675:A2 *666:A1 1.78675e-05
22 *675:B1 *682:A1 0.000238137
23 *675:B2 *666:A1 0.000335149
24 *675:B2 *186:29 8.53113e-06
25 *676:A1 *186:23 0
26 *676:C1 *186:23 0
27 *676:C1 *186:29 0
28 *679:B *728:B 0.000109581
29 *679:B *186:10 0
30 *683:A2_N *682:A1 9.74299e-05
31 *683:A2_N *186:29 0
32 *693:A *186:12 0
33 *694:A *728:B 0.0001249
34 *753:A *186:10 7.35813e-05
35 *763:A *186:10 3.23663e-05
36 *146:76 *666:A1 0
37 *146:89 *186:29 0
38 *149:84 *666:A1 8.03781e-05
39 *179:45 *728:B 0.000312546
*RES
1 *763:X *186:10 9.225 
2 *186:10 *186:12 2.4 
3 *186:12 *693:B 4.05 
4 *186:12 *186:23 2.145 
5 *186:23 *186:29 2.7 
6 *186:29 *666:A1 9.45 
7 *186:29 *682:A1 6.12 
8 *186:23 *674:A1 3.6 
9 *186:10 *186:60 2 
10 *186:60 *728:B 4.825 
11 *186:60 *694:B 1.6 
*END

*D_NET *187 0.00480701
*CONN
*I *683:A1_N I *D sky130_fd_sc_hd__a2bb2o_2
*I *675:A1 I *D sky130_fd_sc_hd__a22o_2
*I *688:B I *D sky130_fd_sc_hd__nand2b_2
*I *691:B I *D sky130_fd_sc_hd__and2_2
*I *690:B I *D sky130_fd_sc_hd__nor2_2
*I *764:X O *D sky130_fd_sc_hd__clkdlybuf4s25_1
*CAP
1 *683:A1_N 2.50983e-05
2 *675:A1 0.000633547
3 *688:B 3.55506e-05
4 *691:B 2.61242e-05
5 *690:B 0.000184977
6 *764:X 6.43169e-05
7 *187:47 0.00106815
8 *187:34 0.000581833
9 *187:10 0.000248331
10 *187:6 0.000238324
11 *675:B1 *675:A1 0.000349592
12 *676:A2 *675:A1 2.60185e-06
13 *682:A1 *675:A1 2.07836e-05
14 *682:B1 *675:A1 4.203e-05
15 *683:A2_N *675:A1 7.72798e-05
16 *683:A2_N *683:A1_N 5.3129e-06
17 *683:B1 *675:A1 8.40213e-05
18 *683:B2 *675:A1 1.5567e-05
19 *684:A1 *187:47 0.000287651
20 *684:A2 *683:A1_N 6.25711e-06
21 *684:A2 *688:B 0
22 *684:A2 *187:47 6.09658e-05
23 *684:C1 *683:A1_N 0
24 *684:C1 *187:47 6.96579e-05
25 *688:A_N *187:6 4.80285e-05
26 *688:A_N *187:34 5.83121e-06
27 *690:A *690:B 0.000146947
28 *744:A1 *187:34 3.1562e-06
29 *88:10 *690:B 0.000181376
30 *88:10 *187:10 0.000116853
31 *89:12 *691:B 4.66108e-05
32 *141:27 *690:B 6.65725e-05
33 *162:10 *690:B 4.43871e-06
34 *162:10 *187:10 5.92191e-05
*RES
1 *764:X *187:6 2.395 
2 *187:6 *187:10 3.38 
3 *187:10 *690:B 7.935 
4 *187:10 *691:B 4.05 
5 *187:6 *187:34 1.485 
6 *187:34 *688:B 2.215 
7 *187:34 *187:47 6.435 
8 *187:47 *675:A1 10.015 
9 *187:47 *683:A1_N 2.14 
*END

*D_NET *188 0.00550264
*CONN
*I *619:A1 I *D sky130_fd_sc_hd__a32o_2
*I *733:A1 I *D sky130_fd_sc_hd__a31o_2
*I *707:B I *D sky130_fd_sc_hd__nand2b_2
*I *614:A1 I *D sky130_fd_sc_hd__o211a_2
*I *732:A I *D sky130_fd_sc_hd__nand2_2
*I *765:X O *D sky130_fd_sc_hd__clkdlybuf4s25_1
*CAP
1 *619:A1 0.000220398
2 *733:A1 0.000485811
3 *707:B 0.000255877
4 *614:A1 0.000137519
5 *732:A 0.00032276
6 *765:X 0
7 *188:40 0.00105947
8 *188:8 0.000594937
9 *188:6 0.000487918
10 *188:4 0.000255875
11 *613:A0 *614:A1 0.000104144
12 *613:A0 *732:A 0
13 *613:A0 *188:40 0
14 *614:A2 *614:A1 6.03947e-06
15 *619:B1 *619:A1 3.36417e-05
16 *619:B2 *188:40 0
17 *623:B1 *188:40 2.67022e-05
18 *631:A *188:40 0
19 *747:A *614:A1 1.12643e-05
20 *765:A *614:A1 5.14672e-05
21 *770:A *732:A 2.76356e-05
22 *770:A *188:6 3.64998e-06
23 *770:A *188:8 7.75195e-05
24 *88:36 *188:40 0.000256422
25 *106:14 *188:40 5.51158e-05
26 *108:8 *707:B 0.000274654
27 *108:8 *733:A1 0.000595792
28 *166:47 *733:A1 0.00011099
29 *178:27 *707:B 4.70343e-05
*RES
1 *765:X *188:4 1.6 
2 *188:4 *188:6 0.45 
3 *188:6 *188:8 1.83 
4 *188:8 *732:A 9.5 
5 *188:8 *614:A1 8.61875 
6 *188:6 *188:40 10.99 
7 *188:40 *707:B 9.5 
8 *188:40 *733:A1 12.605 
9 *188:4 *619:A1 4.12 
*END
