*SPEF "ieee 1481-1999"
*DESIGN "uart_tx"
*DATE "17:31:29 Wednesday September 16, 2026"
*VENDOR "The OpenROAD Project"
*PROGRAM "OpenROAD"
*VERSION "dcf36133a369abc8f3c5e5738cd4d82e4903c0e0"
*DESIGN_FLOW "NAME_SCOPE LOCAL" "PIN_CAP NONE"
*DIVIDER /
*DELIMITER :
*BUS_DELIMITER []
*T_UNIT 1 NS
*C_UNIT 1 PF
*R_UNIT 1 OHM
*L_UNIT 1 HENRY

*NAME_MAP
*3 busy
*4 clk
*5 rst
*6 tx
*7 tx_data[0]
*8 tx_data[1]
*9 tx_data[2]
*10 tx_data[3]
*11 tx_data[4]
*12 tx_data[5]
*13 tx_data[6]
*14 tx_data[7]
*15 tx_start
*16 _000_
*17 _001_
*18 _002_
*19 _003_
*20 _004_
*21 _005_
*22 _006_
*23 _007_
*24 _008_
*25 _009_
*26 _010_
*27 _011_
*28 _012_
*29 _013_
*30 _014_
*31 _015_
*32 _016_
*33 _017_
*34 _018_
*35 _019_
*36 _020_
*37 _021_
*38 _022_
*39 _023_
*40 _024_
*41 _025_
*42 _026_
*43 _027_
*44 _028_
*45 _029_
*46 _030_
*47 _031_
*48 _032_
*49 _033_
*50 _034_
*51 _035_
*52 _036_
*53 _037_
*54 _038_
*55 _039_
*56 _040_
*57 _041_
*58 _042_
*59 _043_
*60 _044_
*61 _045_
*62 _046_
*63 _047_
*64 _048_
*65 _049_
*66 _050_
*67 _051_
*68 _052_
*69 _053_
*70 _054_
*71 _055_
*72 _056_
*73 _057_
*74 _058_
*75 _059_
*76 _060_
*77 _061_
*78 _062_
*79 _063_
*80 _064_
*81 _065_
*82 _066_
*83 _067_
*84 _068_
*85 _069_
*86 _070_
*87 _071_
*88 _072_
*89 _073_
*90 _074_
*91 _075_
*92 _076_
*93 _077_
*94 _078_
*95 _079_
*96 _080_
*97 _081_
*98 _082_
*99 _083_
*100 _084_
*101 _085_
*102 _086_
*103 _087_
*104 _088_
*105 _089_
*106 _090_
*107 _091_
*108 _092_
*109 _093_
*110 _094_
*111 _095_
*112 _096_
*113 _097_
*114 _098_
*115 _099_
*116 _100_
*117 _101_
*118 _102_
*119 _103_
*120 _104_
*121 _105_
*122 _106_
*123 baud_counter\[0\]
*124 baud_counter\[10\]
*125 baud_counter\[11\]
*126 baud_counter\[12\]
*127 baud_counter\[13\]
*128 baud_counter\[14\]
*129 baud_counter\[15\]
*130 baud_counter\[1\]
*131 baud_counter\[2\]
*132 baud_counter\[3\]
*133 baud_counter\[4\]
*134 baud_counter\[5\]
*135 baud_counter\[6\]
*136 baud_counter\[7\]
*137 baud_counter\[8\]
*138 baud_counter\[9\]
*139 bit_index\[0\]
*140 bit_index\[1\]
*141 bit_index\[2\]
*142 bit_index\[3\]
*143 clknet_0_clk
*144 clknet_2_0__leaf_clk
*145 clknet_2_1__leaf_clk
*146 clknet_2_2__leaf_clk
*147 clknet_2_3__leaf_clk
*148 net1
*149 net10
*150 net11
*151 net12
*152 net2
*153 net3
*154 net4
*155 net5
*156 net6
*157 net7
*158 net8
*159 net9
*160 tx_shift\[1\]
*161 tx_shift\[2\]
*162 tx_shift\[3\]
*163 tx_shift\[4\]
*164 tx_shift\[5\]
*165 tx_shift\[6\]
*166 tx_shift\[7\]
*167 tx_shift\[8\]
*168 tx_shift\[9\]
*169 FILLER_0_100
*170 FILLER_0_103
*171 FILLER_0_106
*172 FILLER_0_109
*173 FILLER_0_113
*174 FILLER_0_116
*175 FILLER_0_119
*176 FILLER_0_12
*177 FILLER_0_122
*178 FILLER_0_125
*179 FILLER_0_128
*180 FILLER_0_131
*181 FILLER_0_15
*182 FILLER_0_27
*183 FILLER_0_3
*184 FILLER_0_37
*185 FILLER_0_6
*186 FILLER_0_65
*187 FILLER_0_68
*188 FILLER_0_71
*189 FILLER_0_74
*190 FILLER_0_77
*191 FILLER_0_80
*192 FILLER_0_83
*193 FILLER_0_85
*194 FILLER_0_88
*195 FILLER_0_9
*196 FILLER_0_91
*197 FILLER_0_94
*198 FILLER_0_97
*199 FILLER_10_100
*200 FILLER_10_103
*201 FILLER_10_106
*202 FILLER_10_109
*203 FILLER_10_11
*204 FILLER_10_112
*205 FILLER_10_115
*206 FILLER_10_118
*207 FILLER_10_121
*208 FILLER_10_124
*209 FILLER_10_127
*210 FILLER_10_130
*211 FILLER_10_133
*212 FILLER_10_22
*213 FILLER_10_25
*214 FILLER_10_29
*215 FILLER_10_32
*216 FILLER_10_35
*217 FILLER_10_38
*218 FILLER_10_41
*219 FILLER_10_52
*220 FILLER_10_55
*221 FILLER_10_58
*222 FILLER_10_61
*223 FILLER_10_64
*224 FILLER_10_80
*225 FILLER_10_83
*226 FILLER_10_85
*227 FILLER_10_88
*228 FILLER_10_91
*229 FILLER_10_94
*230 FILLER_10_97
*231 FILLER_11_100
*232 FILLER_11_103
*233 FILLER_11_106
*234 FILLER_11_109
*235 FILLER_11_113
*236 FILLER_11_116
*237 FILLER_11_119
*238 FILLER_11_122
*239 FILLER_11_125
*240 FILLER_11_128
*241 FILLER_11_131
*242 FILLER_11_24
*243 FILLER_11_27
*244 FILLER_11_30
*245 FILLER_11_33
*246 FILLER_11_36
*247 FILLER_11_39
*248 FILLER_11_42
*249 FILLER_11_57
*250 FILLER_11_60
*251 FILLER_11_82
*252 FILLER_11_85
*253 FILLER_11_88
*254 FILLER_11_91
*255 FILLER_11_94
*256 FILLER_11_97
*257 FILLER_12_100
*258 FILLER_12_11
*259 FILLER_12_110
*260 FILLER_12_127
*261 FILLER_12_130
*262 FILLER_12_133
*263 FILLER_12_14
*264 FILLER_12_24
*265 FILLER_12_27
*266 FILLER_12_29
*267 FILLER_12_32
*268 FILLER_12_47
*269 FILLER_12_50
*270 FILLER_12_53
*271 FILLER_12_56
*272 FILLER_12_59
*273 FILLER_12_62
*274 FILLER_12_65
*275 FILLER_12_68
*276 FILLER_12_88
*277 FILLER_12_91
*278 FILLER_12_94
*279 FILLER_12_97
*280 FILLER_13_104
*281 FILLER_13_107
*282 FILLER_13_110
*283 FILLER_13_133
*284 FILLER_13_28
*285 FILLER_13_3
*286 FILLER_13_31
*287 FILLER_13_34
*288 FILLER_13_37
*289 FILLER_13_40
*290 FILLER_13_43
*291 FILLER_13_49
*292 FILLER_13_52
*293 FILLER_13_55
*294 FILLER_13_57
*295 FILLER_13_60
*296 FILLER_13_90
*297 FILLER_13_93
*298 FILLER_14_101
*299 FILLER_14_104
*300 FILLER_14_107
*301 FILLER_14_130
*302 FILLER_14_133
*303 FILLER_14_22
*304 FILLER_14_29
*305 FILLER_14_32
*306 FILLER_14_43
*307 FILLER_14_68
*308 FILLER_14_83
*309 FILLER_14_85
*310 FILLER_14_88
*311 FILLER_14_91
*312 FILLER_15_111
*313 FILLER_15_113
*314 FILLER_15_116
*315 FILLER_15_119
*316 FILLER_15_122
*317 FILLER_15_125
*318 FILLER_15_128
*319 FILLER_15_131
*320 FILLER_15_26
*321 FILLER_15_29
*322 FILLER_15_3
*323 FILLER_15_32
*324 FILLER_15_51
*325 FILLER_15_54
*326 FILLER_15_57
*327 FILLER_15_6
*328 FILLER_15_60
*329 FILLER_15_75
*330 FILLER_15_78
*331 FILLER_15_81
*332 FILLER_15_84
*333 FILLER_15_87
*334 FILLER_15_90
*335 FILLER_15_93
*336 FILLER_16_103
*337 FILLER_16_106
*338 FILLER_16_109
*339 FILLER_16_112
*340 FILLER_16_115
*341 FILLER_16_118
*342 FILLER_16_12
*343 FILLER_16_121
*344 FILLER_16_124
*345 FILLER_16_127
*346 FILLER_16_130
*347 FILLER_16_133
*348 FILLER_16_15
*349 FILLER_16_24
*350 FILLER_16_27
*351 FILLER_16_29
*352 FILLER_16_3
*353 FILLER_16_32
*354 FILLER_16_35
*355 FILLER_16_44
*356 FILLER_16_47
*357 FILLER_16_50
*358 FILLER_16_53
*359 FILLER_16_56
*360 FILLER_16_59
*361 FILLER_16_6
*362 FILLER_16_62
*363 FILLER_16_65
*364 FILLER_16_68
*365 FILLER_16_71
*366 FILLER_16_74
*367 FILLER_16_77
*368 FILLER_16_80
*369 FILLER_16_83
*370 FILLER_16_9
*371 FILLER_17_104
*372 FILLER_17_107
*373 FILLER_17_110
*374 FILLER_17_118
*375 FILLER_17_12
*376 FILLER_17_121
*377 FILLER_17_124
*378 FILLER_17_127
*379 FILLER_17_130
*380 FILLER_17_133
*381 FILLER_17_15
*382 FILLER_17_18
*383 FILLER_17_27
*384 FILLER_17_3
*385 FILLER_17_30
*386 FILLER_17_33
*387 FILLER_17_57
*388 FILLER_17_6
*389 FILLER_17_60
*390 FILLER_17_63
*391 FILLER_17_66
*392 FILLER_17_69
*393 FILLER_17_72
*394 FILLER_17_75
*395 FILLER_17_78
*396 FILLER_17_81
*397 FILLER_17_9
*398 FILLER_18_108
*399 FILLER_18_111
*400 FILLER_18_125
*401 FILLER_18_128
*402 FILLER_18_131
*403 FILLER_18_25
*404 FILLER_18_29
*405 FILLER_18_3
*406 FILLER_18_32
*407 FILLER_18_35
*408 FILLER_18_52
*409 FILLER_18_55
*410 FILLER_18_58
*411 FILLER_18_6
*412 FILLER_18_61
*413 FILLER_18_64
*414 FILLER_18_67
*415 FILLER_18_70
*416 FILLER_18_80
*417 FILLER_18_83
*418 FILLER_18_90
*419 FILLER_19_102
*420 FILLER_19_105
*421 FILLER_19_113
*422 FILLER_19_131
*423 FILLER_19_25
*424 FILLER_19_28
*425 FILLER_19_54
*426 FILLER_19_64
*427 FILLER_19_96
*428 FILLER_19_99
*429 FILLER_1_101
*430 FILLER_1_104
*431 FILLER_1_107
*432 FILLER_1_110
*433 FILLER_1_121
*434 FILLER_1_124
*435 FILLER_1_127
*436 FILLER_1_130
*437 FILLER_1_133
*438 FILLER_1_20
*439 FILLER_1_3
*440 FILLER_1_38
*441 FILLER_1_55
*442 FILLER_1_57
*443 FILLER_1_6
*444 FILLER_1_60
*445 FILLER_1_63
*446 FILLER_1_66
*447 FILLER_1_69
*448 FILLER_1_72
*449 FILLER_1_75
*450 FILLER_1_9
*451 FILLER_1_95
*452 FILLER_1_98
*453 FILLER_20_102
*454 FILLER_20_105
*455 FILLER_20_108
*456 FILLER_20_131
*457 FILLER_20_26
*458 FILLER_20_29
*459 FILLER_20_3
*460 FILLER_20_32
*461 FILLER_20_35
*462 FILLER_20_38
*463 FILLER_20_6
*464 FILLER_20_65
*465 FILLER_21_101
*466 FILLER_21_104
*467 FILLER_21_107
*468 FILLER_21_110
*469 FILLER_21_113
*470 FILLER_21_116
*471 FILLER_21_120
*472 FILLER_21_123
*473 FILLER_21_126
*474 FILLER_21_129
*475 FILLER_21_132
*476 FILLER_21_19
*477 FILLER_21_22
*478 FILLER_21_25
*479 FILLER_21_28
*480 FILLER_21_3
*481 FILLER_21_31
*482 FILLER_21_34
*483 FILLER_21_37
*484 FILLER_21_40
*485 FILLER_21_43
*486 FILLER_21_46
*487 FILLER_21_55
*488 FILLER_21_57
*489 FILLER_21_6
*490 FILLER_21_60
*491 FILLER_21_63
*492 FILLER_21_66
*493 FILLER_21_69
*494 FILLER_21_72
*495 FILLER_21_75
*496 FILLER_21_78
*497 FILLER_21_81
*498 FILLER_21_89
*499 FILLER_21_9
*500 FILLER_21_92
*501 FILLER_21_95
*502 FILLER_21_98
*503 FILLER_22_100
*504 FILLER_22_103
*505 FILLER_22_106
*506 FILLER_22_109
*507 FILLER_22_113
*508 FILLER_22_116
*509 FILLER_22_119
*510 FILLER_22_12
*511 FILLER_22_122
*512 FILLER_22_125
*513 FILLER_22_128
*514 FILLER_22_131
*515 FILLER_22_15
*516 FILLER_22_18
*517 FILLER_22_21
*518 FILLER_22_24
*519 FILLER_22_27
*520 FILLER_22_29
*521 FILLER_22_3
*522 FILLER_22_32
*523 FILLER_22_35
*524 FILLER_22_38
*525 FILLER_22_41
*526 FILLER_22_44
*527 FILLER_22_47
*528 FILLER_22_50
*529 FILLER_22_53
*530 FILLER_22_57
*531 FILLER_22_6
*532 FILLER_22_60
*533 FILLER_22_63
*534 FILLER_22_66
*535 FILLER_22_69
*536 FILLER_22_72
*537 FILLER_22_75
*538 FILLER_22_78
*539 FILLER_22_81
*540 FILLER_22_85
*541 FILLER_22_88
*542 FILLER_22_9
*543 FILLER_22_91
*544 FILLER_22_94
*545 FILLER_22_97
*546 FILLER_2_105
*547 FILLER_2_132
*548 FILLER_2_27
*549 FILLER_2_29
*550 FILLER_2_3
*551 FILLER_2_32
*552 FILLER_2_68
*553 FILLER_2_71
*554 FILLER_2_74
*555 FILLER_2_77
*556 FILLER_2_80
*557 FILLER_2_83
*558 FILLER_2_93
*559 FILLER_2_96
*560 FILLER_3_101
*561 FILLER_3_130
*562 FILLER_3_133
*563 FILLER_3_14
*564 FILLER_3_17
*565 FILLER_3_20
*566 FILLER_3_3
*567 FILLER_3_30
*568 FILLER_3_33
*569 FILLER_3_36
*570 FILLER_3_39
*571 FILLER_3_6
*572 FILLER_3_66
*573 FILLER_3_69
*574 FILLER_3_72
*575 FILLER_3_75
*576 FILLER_4_100
*577 FILLER_4_11
*578 FILLER_4_122
*579 FILLER_4_125
*580 FILLER_4_128
*581 FILLER_4_131
*582 FILLER_4_21
*583 FILLER_4_24
*584 FILLER_4_27
*585 FILLER_4_29
*586 FILLER_4_32
*587 FILLER_4_35
*588 FILLER_4_38
*589 FILLER_4_41
*590 FILLER_4_65
*591 FILLER_4_68
*592 FILLER_4_71
*593 FILLER_4_74
*594 FILLER_4_77
*595 FILLER_4_80
*596 FILLER_4_83
*597 FILLER_5_107
*598 FILLER_5_110
*599 FILLER_5_12
*600 FILLER_5_120
*601 FILLER_5_123
*602 FILLER_5_126
*603 FILLER_5_129
*604 FILLER_5_132
*605 FILLER_5_22
*606 FILLER_5_25
*607 FILLER_5_28
*608 FILLER_5_3
*609 FILLER_5_31
*610 FILLER_5_34
*611 FILLER_5_37
*612 FILLER_5_50
*613 FILLER_5_53
*614 FILLER_5_57
*615 FILLER_5_6
*616 FILLER_5_60
*617 FILLER_5_63
*618 FILLER_5_66
*619 FILLER_5_69
*620 FILLER_5_9
*621 FILLER_6_101
*622 FILLER_6_104
*623 FILLER_6_107
*624 FILLER_6_110
*625 FILLER_6_113
*626 FILLER_6_116
*627 FILLER_6_119
*628 FILLER_6_122
*629 FILLER_6_125
*630 FILLER_6_128
*631 FILLER_6_131
*632 FILLER_6_25
*633 FILLER_6_29
*634 FILLER_6_32
*635 FILLER_6_59
*636 FILLER_6_62
*637 FILLER_6_65
*638 FILLER_6_68
*639 FILLER_6_71
*640 FILLER_6_74
*641 FILLER_6_77
*642 FILLER_6_83
*643 FILLER_6_85
*644 FILLER_6_88
*645 FILLER_6_91
*646 FILLER_6_98
*647 FILLER_7_11
*648 FILLER_7_113
*649 FILLER_7_116
*650 FILLER_7_22
*651 FILLER_7_25
*652 FILLER_7_28
*653 FILLER_7_31
*654 FILLER_7_34
*655 FILLER_7_37
*656 FILLER_7_57
*657 FILLER_7_60
*658 FILLER_7_63
*659 FILLER_7_66
*660 FILLER_7_69
*661 FILLER_7_72
*662 FILLER_7_91
*663 FILLER_7_94
*664 FILLER_8_128
*665 FILLER_8_131
*666 FILLER_8_25
*667 FILLER_8_29
*668 FILLER_8_32
*669 FILLER_8_35
*670 FILLER_8_60
*671 FILLER_8_63
*672 FILLER_8_66
*673 FILLER_8_69
*674 FILLER_8_85
*675 FILLER_8_88
*676 FILLER_8_91
*677 FILLER_8_94
*678 FILLER_8_97
*679 FILLER_9_102
*680 FILLER_9_105
*681 FILLER_9_108
*682 FILLER_9_11
*683 FILLER_9_111
*684 FILLER_9_121
*685 FILLER_9_124
*686 FILLER_9_127
*687 FILLER_9_130
*688 FILLER_9_133
*689 FILLER_9_21
*690 FILLER_9_24
*691 FILLER_9_27
*692 FILLER_9_30
*693 FILLER_9_33
*694 FILLER_9_36
*695 FILLER_9_54
*696 FILLER_9_57
*697 FILLER_9_60
*698 FILLER_9_63
*699 FILLER_9_66
*700 FILLER_9_69
*701 FILLER_9_72
*702 FILLER_9_87
*703 FILLER_9_90
*704 FILLER_9_93
*705 FILLER_9_96
*706 FILLER_9_99
*707 PHY_EDGE_ROW_0_Left_23
*708 PHY_EDGE_ROW_0_Right_0
*709 PHY_EDGE_ROW_10_Left_33
*710 PHY_EDGE_ROW_10_Right_10
*711 PHY_EDGE_ROW_11_Left_34
*712 PHY_EDGE_ROW_11_Right_11
*713 PHY_EDGE_ROW_12_Left_35
*714 PHY_EDGE_ROW_12_Right_12
*715 PHY_EDGE_ROW_13_Left_36
*716 PHY_EDGE_ROW_13_Right_13
*717 PHY_EDGE_ROW_14_Left_37
*718 PHY_EDGE_ROW_14_Right_14
*719 PHY_EDGE_ROW_15_Left_38
*720 PHY_EDGE_ROW_15_Right_15
*721 PHY_EDGE_ROW_16_Left_39
*722 PHY_EDGE_ROW_16_Right_16
*723 PHY_EDGE_ROW_17_Left_40
*724 PHY_EDGE_ROW_17_Right_17
*725 PHY_EDGE_ROW_18_Left_41
*726 PHY_EDGE_ROW_18_Right_18
*727 PHY_EDGE_ROW_19_Left_42
*728 PHY_EDGE_ROW_19_Right_19
*729 PHY_EDGE_ROW_1_Left_24
*730 PHY_EDGE_ROW_1_Right_1
*731 PHY_EDGE_ROW_20_Left_43
*732 PHY_EDGE_ROW_20_Right_20
*733 PHY_EDGE_ROW_21_Left_44
*734 PHY_EDGE_ROW_21_Right_21
*735 PHY_EDGE_ROW_22_Left_45
*736 PHY_EDGE_ROW_22_Right_22
*737 PHY_EDGE_ROW_2_Left_25
*738 PHY_EDGE_ROW_2_Right_2
*739 PHY_EDGE_ROW_3_Left_26
*740 PHY_EDGE_ROW_3_Right_3
*741 PHY_EDGE_ROW_4_Left_27
*742 PHY_EDGE_ROW_4_Right_4
*743 PHY_EDGE_ROW_5_Left_28
*744 PHY_EDGE_ROW_5_Right_5
*745 PHY_EDGE_ROW_6_Left_29
*746 PHY_EDGE_ROW_6_Right_6
*747 PHY_EDGE_ROW_7_Left_30
*748 PHY_EDGE_ROW_7_Right_7
*749 PHY_EDGE_ROW_8_Left_31
*750 PHY_EDGE_ROW_8_Right_8
*751 PHY_EDGE_ROW_9_Left_32
*752 PHY_EDGE_ROW_9_Right_9
*753 TAP_TAPCELL_ROW_0_46
*754 TAP_TAPCELL_ROW_0_47
*755 TAP_TAPCELL_ROW_0_48
*756 TAP_TAPCELL_ROW_0_49
*757 TAP_TAPCELL_ROW_10_68
*758 TAP_TAPCELL_ROW_10_69
*759 TAP_TAPCELL_ROW_11_70
*760 TAP_TAPCELL_ROW_11_71
*761 TAP_TAPCELL_ROW_12_72
*762 TAP_TAPCELL_ROW_12_73
*763 TAP_TAPCELL_ROW_13_74
*764 TAP_TAPCELL_ROW_13_75
*765 TAP_TAPCELL_ROW_14_76
*766 TAP_TAPCELL_ROW_14_77
*767 TAP_TAPCELL_ROW_15_78
*768 TAP_TAPCELL_ROW_15_79
*769 TAP_TAPCELL_ROW_16_80
*770 TAP_TAPCELL_ROW_16_81
*771 TAP_TAPCELL_ROW_17_82
*772 TAP_TAPCELL_ROW_17_83
*773 TAP_TAPCELL_ROW_18_84
*774 TAP_TAPCELL_ROW_18_85
*775 TAP_TAPCELL_ROW_19_86
*776 TAP_TAPCELL_ROW_19_87
*777 TAP_TAPCELL_ROW_1_50
*778 TAP_TAPCELL_ROW_1_51
*779 TAP_TAPCELL_ROW_20_88
*780 TAP_TAPCELL_ROW_20_89
*781 TAP_TAPCELL_ROW_21_90
*782 TAP_TAPCELL_ROW_21_91
*783 TAP_TAPCELL_ROW_22_92
*784 TAP_TAPCELL_ROW_22_93
*785 TAP_TAPCELL_ROW_22_94
*786 TAP_TAPCELL_ROW_22_95
*787 TAP_TAPCELL_ROW_2_52
*788 TAP_TAPCELL_ROW_2_53
*789 TAP_TAPCELL_ROW_3_54
*790 TAP_TAPCELL_ROW_3_55
*791 TAP_TAPCELL_ROW_4_56
*792 TAP_TAPCELL_ROW_4_57
*793 TAP_TAPCELL_ROW_5_58
*794 TAP_TAPCELL_ROW_5_59
*795 TAP_TAPCELL_ROW_6_60
*796 TAP_TAPCELL_ROW_6_61
*797 TAP_TAPCELL_ROW_7_62
*798 TAP_TAPCELL_ROW_7_63
*799 TAP_TAPCELL_ROW_8_64
*800 TAP_TAPCELL_ROW_8_65
*801 TAP_TAPCELL_ROW_9_66
*802 TAP_TAPCELL_ROW_9_67
*803 _107_
*804 _108_
*805 _109_
*806 _110_
*807 _111_
*808 _112_
*809 _113_
*810 _114_
*811 _115_
*812 _116_
*813 _117_
*814 _118_
*815 _119_
*816 _120_
*817 _121_
*818 _122_
*819 _123_
*820 _124_
*821 _125_
*822 _126_
*823 _127_
*824 _128_
*825 _129_
*826 _130_
*827 _131_
*828 _132_
*829 _133_
*830 _134_
*831 _135_
*832 _136_
*833 _137_
*834 _138_
*835 _139_
*836 _140_
*837 _141_
*838 _142_
*839 _143_
*840 _144_
*841 _145_
*842 _146_
*843 _147_
*844 _148_
*845 _149_
*846 _150_
*847 _151_
*848 _152_
*849 _153_
*850 _154_
*851 _155_
*852 _156_
*853 _157_
*854 _158_
*855 _159_
*856 _160_
*857 _161_
*858 _162_
*859 _163_
*860 _164_
*861 _165_
*862 _166_
*863 _167_
*864 _168_
*865 _169_
*866 _170_
*867 _171_
*868 _172_
*869 _173_
*870 _174_
*871 _175_
*872 _176_
*873 _177_
*874 _178_
*875 _179_
*876 _180_
*877 _181_
*878 _182_
*879 _183_
*880 _184_
*881 _185_
*882 _186_
*883 _187_
*884 _188_
*885 _189_
*886 _190_
*887 _191_
*888 _192_
*889 _193_
*890 _194_
*891 _195_
*892 _196_
*893 _197_
*894 _198_
*895 _199_
*896 _200_
*897 _201_
*898 _202_
*899 _203_
*900 _204_
*901 _205_
*902 _206_
*903 _207_
*904 _208_
*905 _209_
*906 _210_
*907 _211_
*908 _212_
*909 _213_
*910 _214_
*911 _215_
*912 _216_
*913 _217_
*914 _218_
*915 _219_
*916 _220_
*917 _221_
*918 _222_
*919 _223_
*920 _224_
*921 _225_
*922 _226_
*923 _227_
*924 _228_
*925 _229_
*926 _230_
*927 _231_
*928 _232_
*929 _233_
*930 _234_
*931 _235_
*932 _236_
*933 _237_
*934 _238_
*935 _239_
*936 _240_
*937 _241_
*938 _242_
*939 _243_
*940 _244_
*941 clkbuf_0_clk
*942 clkbuf_2_0__f_clk
*943 clkbuf_2_1__f_clk
*944 clkbuf_2_2__f_clk
*945 clkbuf_2_3__f_clk
*946 clkload0
*947 clkload1
*948 clkload2
*949 input1
*950 input10
*951 input2
*952 input3
*953 input4
*954 input5
*955 input6
*956 input7
*957 input8
*958 input9
*959 output11
*960 output12

*PORTS
busy O
clk I
rst I
tx O
tx_data[0] I
tx_data[1] I
tx_data[2] I
tx_data[3] I
tx_data[4] I
tx_data[5] I
tx_data[6] I
tx_data[7] I
tx_start I

*D_NET *3 0.000988763
*CONN
*P busy O
*I *959:X O *D sky130_fd_sc_hd__clkdlybuf4s25_1
*CAP
1 busy 0.000128348
2 *959:X 0.000259913
3 *3:12 0.000388261
4 busy *15:11 0.000211457
5 *3:12 *4:12 7.84708e-07
*RES
1 *959:X *3:12 49.8011 
2 *3:12 busy 0.701867 
*END

*D_NET *4 0.0079503
*CONN
*P clk I
*I *941:A I *D sky130_fd_sc_hd__clkbuf_16
*CAP
1 clk 0.00147874
2 *941:A 0
3 *4:18 0.00184177
4 *4:12 0.00332052
5 *4:12 *913:CLK 0
6 *4:12 *19:8 0
7 *4:12 *48:10 0
8 *4:12 *49:10 0
9 *4:12 *146:26 0
10 *4:12 *146:33 0
11 *4:12 *167:8 0
12 *4:18 *857:A3 8.8387e-05
13 *4:18 *864:A 6.33761e-05
14 *4:18 *866:B 6.33857e-05
15 *4:18 *14:13 0.000101416
16 *4:18 *82:16 4.87456e-05
17 *4:18 *100:85 3.26475e-05
18 *4:18 *103:8 6.62315e-05
19 *4:18 *105:8 2.35226e-05
20 *4:18 *105:25 7.03605e-06
21 *4:18 *115:33 0.000240091
22 *4:18 *116:18 6.94251e-05
23 *4:18 *116:128 0
24 *4:18 *121:42 0.000120394
25 *4:18 *148:20 0.000194819
26 *4:18 *167:12 0.000189002
27 *3:12 *4:12 7.84708e-07
*RES
1 clk *4:12 46.5514 
2 *4:12 *4:18 47.6457 
3 *4:18 *941:A 38 
*END

*D_NET *5 0.000964396
*CONN
*P rst I
*I *949:A I *D sky130_fd_sc_hd__clkdlybuf4s25_1
*CAP
1 rst 0.000454079
2 *949:A 0
3 *5:13 0.000454079
4 *5:13 *13:13 0
5 *5:13 *14:13 5.62385e-05
6 *5:13 *15:11 0
*RES
1 rst *5:13 28.9115 
2 *5:13 *949:A 23 
*END

*D_NET *6 0.00105917
*CONN
*P tx O
*I *960:X O *D sky130_fd_sc_hd__clkdlybuf4s25_1
*CAP
1 tx 0.000423854
2 *960:X 0.000423854
3 tx *12:13 0
4 tx *13:13 0.000211457
*RES
1 *960:X tx 48.8639 
*END

*D_NET *7 0.00152975
*CONN
*P tx_data[0] I
*I *951:A I *D sky130_fd_sc_hd__clkdlybuf4s25_1
*CAP
1 tx_data[0] 0.000485991
2 *951:A 0
3 *7:9 0.000485991
4 *7:9 *8:11 0.000554059
5 *7:9 *9:9 0
6 *7:9 *152:10 3.7122e-06
*RES
1 tx_data[0] *7:9 29.0029 
2 *7:9 *951:A 23 
*END

*D_NET *8 0.00154636
*CONN
*P tx_data[1] I
*I *952:A I *D sky130_fd_sc_hd__clkdlybuf4s25_1
*CAP
1 tx_data[1] 0.000496153
2 *952:A 0
3 *8:11 0.000496153
4 *7:9 *8:11 0.000554059
*RES
1 tx_data[1] *8:11 29.1479 
2 *8:11 *952:A 23 
*END

*D_NET *9 0.00122833
*CONN
*P tx_data[2] I
*I *953:A I *D sky130_fd_sc_hd__clkdlybuf4s25_1
*CAP
1 tx_data[2] 0.000614167
2 *953:A 0
3 *9:9 0.000614167
4 *7:9 *9:9 0
*RES
1 tx_data[2] *9:9 28.05 
2 *9:9 *953:A 23 
*END

*D_NET *10 0.00190077
*CONN
*P tx_data[3] I
*I *954:A I *D sky130_fd_sc_hd__clkdlybuf4s25_1
*CAP
1 tx_data[3] 0.000617965
2 *954:A 0
3 *10:9 0.000617965
4 *10:9 *844:A0 3.3123e-05
5 *10:9 *104:55 0.000315857
6 *10:9 *155:6 0.000315857
*RES
1 tx_data[3] *10:9 30.9086 
2 *10:9 *954:A 23 
*END

*D_NET *11 0.000855254
*CONN
*P tx_data[4] I
*I *955:A I *D sky130_fd_sc_hd__clkdlybuf4s25_1
*CAP
1 tx_data[4] 0.000427627
2 *955:A 0
3 *11:13 0.000427627
*RES
1 tx_data[4] *11:13 28.9883 
2 *11:13 *955:A 23 
*END

*D_NET *12 0.00092951
*CONN
*P tx_data[5] I
*I *956:A I *D sky130_fd_sc_hd__clkdlybuf4s25_1
*CAP
1 tx_data[5] 0.000464755
2 *956:A 0
3 *12:13 0.000464755
4 tx *12:13 0
*RES
1 tx_data[5] *12:13 31.2549 
2 *12:13 *956:A 23 
*END

*D_NET *13 0.000939549
*CONN
*P tx_data[6] I
*I *957:A I *D sky130_fd_sc_hd__clkdlybuf4s25_1
*CAP
1 tx_data[6] 0.000364046
2 *957:A 0
3 *13:13 0.000364046
4 tx *13:13 0.000211457
5 *5:13 *13:13 0
*RES
1 tx_data[6] *13:13 27.8551 
2 *13:13 *957:A 23 
*END

*D_NET *14 0.000917301
*CONN
*P tx_data[7] I
*I *958:A I *D sky130_fd_sc_hd__clkdlybuf4s25_1
*CAP
1 tx_data[7] 0.000366436
2 *958:A 0
3 *14:13 0.000366436
4 *14:13 *15:11 2.67751e-05
5 *4:18 *14:13 0.000101416
6 *5:13 *14:13 5.62385e-05
*RES
1 tx_data[7] *14:13 30.1985 
2 *14:13 *958:A 23 
*END

*D_NET *15 0.00160804
*CONN
*P tx_start I
*I *950:A I *D sky130_fd_sc_hd__clkdlybuf4s25_1
*CAP
1 tx_start 0.000649716
2 *950:A 0
3 *15:11 0.000649716
4 *15:11 *857:A1 0
5 *15:11 *100:8 0
6 *15:11 *146:26 7.03766e-05
7 *15:11 *150:32 0
8 busy *15:11 0.000211457
9 *5:13 *15:11 0
10 *14:13 *15:11 2.67751e-05
*RES
1 tx_start *15:11 27.4238 
2 *15:11 *950:A 23 
*END

*D_NET *16 0.00049477
*CONN
*I *910:D I *D sky130_fd_sc_hd__dfxtp_2
*I *880:X O *D sky130_fd_sc_hd__a211o_2
*CAP
1 *910:D 1.13183e-05
2 *880:X 0.00014953
3 *16:10 0.000160849
4 *910:D *960:A 1.64354e-05
5 *16:10 *910:CLK 8.4047e-05
6 *16:10 *116:80 7.25906e-05
*RES
1 *880:X *16:10 40.8793 
2 *16:10 *910:D 38.1916 
*END

*D_NET *17 0.0013977
*CONN
*I *911:D I *D sky130_fd_sc_hd__dfxtp_2
*I *882:X O *D sky130_fd_sc_hd__o211a_2
*CAP
1 *911:D 0.000127473
2 *882:X 0.000276726
3 *17:10 0.000404199
4 *911:D *911:CLK 4.48642e-05
5 *911:D *146:60 0.000231039
6 *17:10 *110:20 0.000275599
7 *17:10 *146:12 4.6318e-06
8 *17:10 *150:10 3.31683e-05
*RES
1 *882:X *17:10 43.6136 
2 *17:10 *911:D 41.0502 
*END

*D_NET *18 0.000947336
*CONN
*I *912:D I *D sky130_fd_sc_hd__dfxtp_2
*I *886:Y O *D sky130_fd_sc_hd__a21oi_2
*CAP
1 *912:D 0.000101925
2 *886:Y 0.000290862
3 *18:8 0.000392787
4 *18:8 *886:A1 8.77506e-05
5 *18:8 *886:B1 0
6 *18:8 *150:73 5.08899e-05
7 *18:8 *150:92 2.31209e-05
*RES
1 *886:Y *18:8 44.4836 
2 *18:8 *912:D 39.6209 
*END

*D_NET *19 0.000590706
*CONN
*I *913:D I *D sky130_fd_sc_hd__dfxtp_2
*I *890:Y O *D sky130_fd_sc_hd__nor2_2
*CAP
1 *913:D 0.000201327
2 *890:Y 7.61995e-05
3 *19:8 0.000277526
4 *19:8 *913:CLK 3.56537e-05
5 *4:12 *19:8 0
*RES
1 *890:Y *19:8 39.5536 
2 *19:8 *913:D 40.843 
*END

*D_NET *20 0.00072497
*CONN
*I *914:D I *D sky130_fd_sc_hd__dfxtp_2
*I *893:X O *D sky130_fd_sc_hd__and3b_2
*CAP
1 *914:D 1.26909e-05
2 *893:X 0.000207821
3 *20:10 0.000220512
4 *914:D *891:B1 8.15899e-06
5 *20:10 *873:C 7.27895e-05
6 *20:10 *893:B 5.3304e-05
7 *20:10 *50:12 0.000108681
8 *20:10 *123:85 0
9 *20:10 *146:97 4.10112e-05
*RES
1 *893:X *20:10 42.1843 
2 *20:10 *914:D 38.1916 
*END

*D_NET *21 0.000486014
*CONN
*I *915:D I *D sky130_fd_sc_hd__dfxtp_2
*I *895:Y O *D sky130_fd_sc_hd__a21oi_2
*CAP
1 *915:D 1.31802e-05
2 *895:Y 0.000179311
3 *21:10 0.000192491
4 *21:10 *895:A1 3.71369e-05
5 *21:10 *895:A2 0
6 *21:10 *52:10 6.38947e-05
*RES
1 *895:Y *21:10 41.7079 
2 *21:10 *915:D 38.1916 
*END

*D_NET *22 0.000463119
*CONN
*I *916:D I *D sky130_fd_sc_hd__dfxtp_2
*I *898:X O *D sky130_fd_sc_hd__and3b_2
*CAP
1 *916:D 0.000120379
2 *898:X 0.000120379
3 *916:D *898:C 0.000139346
4 *916:D *47:29 8.3014e-05
5 *916:D *53:25 0
*RES
1 *898:X *916:D 48.8638 
*END

*D_NET *23 0.000345751
*CONN
*I *917:D I *D sky130_fd_sc_hd__dfxtp_2
*I *900:X O *D sky130_fd_sc_hd__o21ba_2
*CAP
1 *917:D 5.48656e-06
2 *900:X 8.51417e-05
3 *23:8 9.06282e-05
4 *917:D *917:CLK 1.64354e-05
5 *917:D *51:39 7.10068e-06
6 *23:8 *53:25 0
7 *23:8 *55:10 0.000140958
*RES
1 *900:X *23:8 39.9057 
2 *23:8 *917:D 38.1916 
*END

*D_NET *24 0.00071753
*CONN
*I *918:D I *D sky130_fd_sc_hd__dfxtp_2
*I *903:X O *D sky130_fd_sc_hd__and3b_2
*CAP
1 *918:D 7.62908e-05
2 *903:X 0.000115031
3 *24:10 0.000191322
4 *24:10 *56:8 0.000167443
5 *24:10 *112:16 0.000167443
*RES
1 *903:X *24:10 40.8793 
2 *24:10 *918:D 38.9943 
*END

*D_NET *25 0.000622159
*CONN
*I *919:D I *D sky130_fd_sc_hd__dfxtp_2
*I *906:X O *D sky130_fd_sc_hd__and3_2
*CAP
1 *919:D 0.000218366
2 *906:X 0.000218366
3 *919:D *919:CLK 0.000185428
*RES
1 *906:X *919:D 49.8166 
*END

*D_NET *26 0.000701861
*CONN
*I *920:D I *D sky130_fd_sc_hd__dfxtp_2
*I *908:X O *D sky130_fd_sc_hd__o211a_2
*CAP
1 *920:D 7.54107e-05
2 *908:X 0.000200099
3 *26:8 0.00027551
4 *26:8 *102:27 0.000116224
5 *26:8 *136:10 3.46181e-05
6 *26:8 *137:29 0
*RES
1 *908:X *26:8 42.7229 
2 *26:8 *920:D 39.1445 
*END

*D_NET *27 0.000443199
*CONN
*I *921:D I *D sky130_fd_sc_hd__dfxtp_2
*I *804:X O *D sky130_fd_sc_hd__and3b_2
*CAP
1 *921:D 4.5806e-05
2 *804:X 0.000101682
3 *27:8 0.000147488
4 *921:D *108:8 3.09254e-05
5 *921:D *138:38 2.49645e-05
6 *27:8 *61:8 8.16253e-05
7 *27:8 *107:18 6.07611e-06
8 *27:8 *120:102 4.6318e-06
9 *27:8 *120:114 0
*RES
1 *804:X *27:8 40.2579 
2 *27:8 *921:D 38.9943 
*END

*D_NET *28 0.000722486
*CONN
*I *922:D I *D sky130_fd_sc_hd__dfxtp_2
*I *807:X O *D sky130_fd_sc_hd__and3b_2
*CAP
1 *922:D 8.18872e-06
2 *807:X 0.000337871
3 *28:10 0.00034606
4 *922:D *124:14 1.64354e-05
5 *28:10 *807:C 1.39317e-05
6 *28:10 *64:12 0
7 *28:10 *124:49 0
*RES
1 *807:X *28:10 43.3443 
2 *28:10 *922:D 38.1916 
*END

*D_NET *29 0.000770605
*CONN
*I *923:D I *D sky130_fd_sc_hd__dfxtp_2
*I *809:X O *D sky130_fd_sc_hd__o21ba_2
*CAP
1 *923:D 5.83941e-05
2 *809:X 0.000136993
3 *29:10 0.000195387
4 *923:D *805:B 5.55743e-06
5 *923:D *62:18 5.88615e-05
6 *29:10 *923:CLK 0.000108129
7 *29:10 *120:51 0.000108129
8 *29:10 *124:14 9.91548e-05
*RES
1 *809:X *29:10 40.6514 
2 *29:10 *923:D 39.3102 
*END

*D_NET *30 0.000497234
*CONN
*I *924:D I *D sky130_fd_sc_hd__dfxtp_2
*I *812:X O *D sky130_fd_sc_hd__and3b_2
*CAP
1 *924:D 0.000125971
2 *812:X 0.000122646
3 *30:8 0.000248617
4 *30:8 *812:A_N 0
5 *30:8 *924:CLK 0
6 *30:8 *126:10 0
*RES
1 *812:X *30:8 40.2579 
2 *30:8 *924:D 40.0973 
*END

*D_NET *31 0.000873863
*CONN
*I *925:D I *D sky130_fd_sc_hd__dfxtp_2
*I *815:X O *D sky130_fd_sc_hd__o21ba_2
*CAP
1 *925:D 8.45249e-06
2 *815:X 0.000373527
3 *31:10 0.00038198
4 *925:D *145:16 1.64354e-05
5 *31:10 *815:B1_N 1.94812e-05
6 *31:10 *924:CLK 1.83564e-05
7 *31:10 *934:CLK 5.56306e-05
8 *31:10 *145:16 0
*RES
1 *815:X *31:10 43.3857 
2 *31:10 *925:D 38.1916 
*END

*D_NET *32 0.0011113
*CONN
*I *926:D I *D sky130_fd_sc_hd__dfxtp_2
*I *818:X O *D sky130_fd_sc_hd__and3_2
*CAP
1 *926:D 4.65577e-05
2 *818:X 0.00031355
3 *32:10 0.000360108
4 *926:D *73:10 3.44735e-05
5 *32:10 *817:C 2.93747e-05
6 *32:10 *818:C 0.00014196
7 *32:10 *64:26 0.000141869
8 *32:10 *128:36 4.3407e-05
*RES
1 *818:X *32:10 43.3857 
2 *32:10 *926:D 38.9943 
*END

*D_NET *33 0.000468524
*CONN
*I *927:D I *D sky130_fd_sc_hd__dfxtp_2
*I *821:X O *D sky130_fd_sc_hd__o211a_2
*CAP
1 *927:D 5.29772e-05
2 *821:X 9.74647e-05
3 *33:8 0.000150442
4 *927:D *129:8 0.000100782
5 *33:8 *101:10 6.68587e-05
*RES
1 *821:X *33:8 39.9057 
2 *33:8 *927:D 39.1445 
*END

*D_NET *34 0.000436186
*CONN
*I *928:D I *D sky130_fd_sc_hd__dfxtp_2
*I *823:Y O *D sky130_fd_sc_hd__nor2_2
*CAP
1 *928:D 1.27342e-05
2 *823:Y 0.000169141
3 *34:10 0.000181876
4 *34:10 *823:A 7.61229e-06
5 *34:10 *67:10 0
6 *34:10 *121:63 2.193e-05
7 *34:10 *143:25 4.28928e-05
8 *34:10 *143:29 0
*RES
1 *823:Y *34:10 40.8793 
2 *34:10 *928:D 38.1916 
*END

*D_NET *35 0.00168631
*CONN
*I *929:D I *D sky130_fd_sc_hd__dfxtp_2
*I *827:X O *D sky130_fd_sc_hd__and3b_2
*CAP
1 *929:D 0.000233722
2 *827:X 0.000282393
3 *35:10 0.000516115
4 *35:10 *826:A 0.000145784
5 *35:10 *74:10 0.000113244
6 *35:10 *120:30 9.67842e-05
7 *35:10 *120:43 0.000183733
8 *35:10 *121:50 0.000114538
9 *35:10 *143:11 0
*RES
1 *827:X *35:10 45.7264 
2 *35:10 *929:D 41.5266 
*END

*D_NET *36 0.00146388
*CONN
*I *930:D I *D sky130_fd_sc_hd__dfxtp_2
*I *831:X O *D sky130_fd_sc_hd__o21a_2
*CAP
1 *930:D 3.23216e-05
2 *831:X 0.000229194
3 *36:8 0.000261516
4 *930:D *930:CLK 8.79002e-05
5 *930:D *116:128 3.09254e-05
6 *36:8 *79:8 1.37246e-05
7 *36:8 *99:29 0.000274543
8 *36:8 *139:66 0.000222104
9 *36:8 *140:33 1.84329e-05
10 *36:8 *143:11 5.80963e-05
11 *36:8 *143:65 0.000235117
*RES
1 *831:X *36:8 45.8921 
2 *36:8 *930:D 38.9943 
*END

*D_NET *37 0.000329588
*CONN
*I *931:D I *D sky130_fd_sc_hd__dfxtp_2
*I *833:X O *D sky130_fd_sc_hd__and3_2
*CAP
1 *931:D 4.76018e-05
2 *833:X 4.76018e-05
3 *931:D *833:C 0.000177678
4 *931:D *146:68 5.67058e-05
*RES
1 *833:X *931:D 47.9471 
*END

*D_NET *38 0.00157498
*CONN
*I *932:D I *D sky130_fd_sc_hd__dfxtp_2
*I *837:X O *D sky130_fd_sc_hd__or2_2
*CAP
1 *932:D 6.22946e-05
2 *837:X 0.000458588
3 *38:10 0.000520882
4 *38:10 *910:CLK 3.90213e-05
5 *38:10 *946:A 0.000191562
6 *38:10 *84:8 0
7 *38:10 *104:43 0.000105829
8 *38:10 *144:10 5.57651e-05
9 *38:10 *144:80 0.000141038
*RES
1 *837:X *38:10 47.8186 
2 *38:10 *932:D 38.9943 
*END

*D_NET *39 0.00138264
*CONN
*I *933:D I *D sky130_fd_sc_hd__dfxtp_2
*I *840:X O *D sky130_fd_sc_hd__or2_2
*CAP
1 *933:D 6.7202e-06
2 *840:X 0.0005067
3 *39:10 0.00051342
4 *933:D *838:A1 1.74843e-05
5 *933:D *85:10 4.9054e-06
6 *39:10 *835:A0 9.88574e-06
7 *39:10 *835:S 0.000104353
8 *39:10 *842:S 0
9 *39:10 *83:8 0.000141052
10 *39:10 *152:10 7.81176e-05
*RES
1 *840:X *39:10 45.6436 
2 *39:10 *933:D 38.1916 
*END

*D_NET *40 0.00264353
*CONN
*I *934:D I *D sky130_fd_sc_hd__dfxtp_2
*I *843:X O *D sky130_fd_sc_hd__or2_2
*CAP
1 *934:D 0
2 *843:X 0.000221365
3 *40:14 0.000639318
4 *40:8 0.000860683
5 *40:8 *842:A1 7.88828e-05
6 *40:8 *843:A 5.79559e-05
7 *40:8 *843:B 2.18926e-05
8 *40:14 *842:A1 7.76364e-06
9 *40:14 *82:106 0
10 *40:14 *83:12 0.000218962
11 *40:14 *87:12 5.31444e-05
12 *40:14 *152:10 0.000425539
13 *40:14 *162:10 5.80278e-05
*RES
1 *843:X *40:8 42.9093 
2 *40:8 *40:14 28.2002 
3 *40:14 *934:D 23 
*END

*D_NET *41 0.000467686
*CONN
*I *935:D I *D sky130_fd_sc_hd__dfxtp_2
*I *846:X O *D sky130_fd_sc_hd__or2_2
*CAP
1 *935:D 8.42247e-05
2 *846:X 7.86745e-05
3 *41:8 0.000162899
4 *41:8 *845:A1 0
5 *41:8 *89:10 0.000141888
6 *41:8 *163:10 0
*RES
1 *846:X *41:8 39.9057 
2 *41:8 *935:D 39.1445 
*END

*D_NET *42 0.000512749
*CONN
*I *936:D I *D sky130_fd_sc_hd__dfxtp_2
*I *849:X O *D sky130_fd_sc_hd__or2_2
*CAP
1 *936:D 4.92943e-05
2 *849:X 0.000124285
3 *42:8 0.000173579
4 *936:D *144:44 0.000102732
5 *42:8 *92:10 6.28591e-05
6 *42:8 *144:35 0
*RES
1 *849:X *42:8 40.61 
2 *42:8 *936:D 39.1445 
*END

*D_NET *43 0.000766626
*CONN
*I *937:D I *D sky130_fd_sc_hd__dfxtp_2
*I *852:X O *D sky130_fd_sc_hd__or2_2
*CAP
1 *937:D 0
2 *852:X 0.0002959
3 *43:12 0.0002959
4 *43:12 *144:27 0.000118999
5 *43:12 *144:31 5.58274e-05
*RES
1 *852:X *43:12 27.9352 
2 *43:12 *937:D 23 
*END

*D_NET *44 0.000562103
*CONN
*I *938:D I *D sky130_fd_sc_hd__dfxtp_2
*I *855:X O *D sky130_fd_sc_hd__or2_2
*CAP
1 *938:D 0
2 *855:X 0.000232718
3 *44:10 0.000232718
4 *44:10 *938:CLK 9.66668e-05
*RES
1 *855:X *44:10 27.495 
2 *44:10 *938:D 23 
*END

*D_NET *45 0.000683918
*CONN
*I *939:D I *D sky130_fd_sc_hd__dfxtp_2
*I *858:X O *D sky130_fd_sc_hd__or2_2
*CAP
1 *939:D 0.000239597
2 *858:X 0.000239597
3 *939:D *858:B 1.14876e-05
4 *939:D *116:37 5.50106e-05
5 *939:D *121:16 1.61361e-05
6 *939:D *146:26 0.000122089
*RES
1 *858:X *939:D 49.7959 
*END

*D_NET *46 0.000903061
*CONN
*I *940:D I *D sky130_fd_sc_hd__dfxtp_2
*I *859:X O *D sky130_fd_sc_hd__a21o_2
*CAP
1 *940:D 0.000119351
2 *859:X 7.71666e-05
3 *46:8 0.000196517
4 *940:D *146:14 0.000275729
5 *940:D *150:28 5.3304e-05
6 *46:8 *859:A1 3.21327e-05
7 *46:8 *75:8 0
8 *46:8 *150:32 3.47781e-05
9 *46:8 *150:52 0.000114083
*RES
1 *859:X *46:8 39.9057 
2 *46:8 *940:D 41.0502 
*END

*D_NET *47 0.00548864
*CONN
*I *908:C1 I *D sky130_fd_sc_hd__o211a_2
*I *906:A I *D sky130_fd_sc_hd__and3_2
*I *898:C I *D sky130_fd_sc_hd__and3b_2
*I *887:Y O *D sky130_fd_sc_hd__nor2_2
*CAP
1 *908:C1 2.79537e-05
2 *906:A 0
3 *898:C 0.000210938
4 *887:Y 0.00115744
5 *47:47 0.000943879
6 *47:29 0.000480452
7 *47:12 0.00069139
8 *47:10 0.000241515
9 *908:C1 *58:10 0
10 *908:C1 *60:10 2.43903e-05
11 *47:10 *887:B 5.67058e-05
12 *47:10 *897:A2 4.60263e-05
13 *47:10 *899:A1 0
14 *47:10 *900:A1 0
15 *47:10 *902:D 6.17437e-06
16 *47:10 *51:50 0.000104133
17 *47:10 *112:8 1.03836e-05
18 *47:10 *134:33 9.67842e-05
19 *47:10 *147:93 0.000108681
20 *47:29 *867:B 0.00010018
21 *47:29 *896:B 8.47188e-05
22 *47:29 *919:CLK 0.00014196
23 *47:29 *133:26 3.82058e-06
24 *47:29 *133:30 0.000110913
25 *47:29 *147:78 0.000569799
26 *47:47 *875:C 2.33476e-05
27 *47:47 *51:50 2.46922e-05
28 *916:D *898:C 0.000139346
29 *916:D *47:29 8.3014e-05
*RES
1 *887:Y *47:10 43.4686 
2 *47:10 *47:12 15 
3 *47:12 *898:C 25.957 
4 *47:12 *47:29 41.3721 
5 *47:29 *906:A 23 
6 *887:Y *47:47 48.352 
7 *47:47 *908:C1 46.6732 
*END

*D_NET *48 0.000848935
*CONN
*I *890:A I *D sky130_fd_sc_hd__nor2_2
*I *888:Y O *D sky130_fd_sc_hd__a21oi_2
*CAP
1 *890:A 0
2 *888:Y 0.000277654
3 *48:10 0.000277654
4 *48:10 *888:A2 3.17634e-05
5 *48:10 *49:10 9.32143e-05
6 *48:10 *146:33 0.000155417
7 *48:10 *150:69 1.32314e-05
8 *4:12 *48:10 0
*RES
1 *888:Y *48:10 44.0693 
2 *48:10 *890:A 38 
*END

*D_NET *49 0.00128791
*CONN
*I *890:B I *D sky130_fd_sc_hd__nor2_2
*I *889:X O *D sky130_fd_sc_hd__a311o_2
*CAP
1 *890:B 0
2 *889:X 0.000507812
3 *49:10 0.000507812
4 *49:10 *888:A2 0.000122029
5 *49:10 *888:B1 5.70419e-05
6 *4:12 *49:10 0
7 *48:10 *49:10 9.32143e-05
*RES
1 *889:X *49:10 46.12 
2 *49:10 *890:B 38 
*END

*D_NET *50 0.00137682
*CONN
*I *893:C I *D sky130_fd_sc_hd__and3b_2
*I *891:X O *D sky130_fd_sc_hd__a31o_2
*CAP
1 *893:C 1.01088e-05
2 *891:X 0.000493189
3 *50:12 0.000503298
4 *893:C *873:C 1.64354e-05
5 *50:12 *891:B1 1.08366e-05
6 *50:12 *893:A_N 0
7 *50:12 *123:60 2.47702e-05
8 *50:12 *123:75 1.83446e-05
9 *50:12 *123:85 0
10 *50:12 *146:97 0.000191157
11 *20:10 *50:12 0.000108681
*RES
1 *891:X *50:12 45.54 
2 *50:12 *893:C 38.1916 
*END

*D_NET *51 0.00985476
*CONN
*I *895:A2 I *D sky130_fd_sc_hd__a21oi_2
*I *894:A2 I *D sky130_fd_sc_hd__o21ai_2
*I *897:A2 I *D sky130_fd_sc_hd__a21o_2
*I *902:D I *D sky130_fd_sc_hd__and4_2
*I *901:A3 I *D sky130_fd_sc_hd__a31o_2
*I *896:C I *D sky130_fd_sc_hd__and3_2
*I *893:A_N I *D sky130_fd_sc_hd__and3b_2
*I *892:X O *D sky130_fd_sc_hd__and4_2
*CAP
1 *895:A2 0.000281102
2 *894:A2 0
3 *897:A2 0.000213326
4 *902:D 6.91335e-05
5 *901:A3 0
6 *896:C 0
7 *893:A_N 0.000236755
8 *892:X 0
9 *51:60 0.000707421
10 *51:50 0.000961231
11 *51:48 0.00041636
12 *51:39 0.000844998
13 *51:29 0.00123333
14 *51:8 0.000719864
15 *51:6 0.000357519
16 *893:A_N *873:C 5.79559e-05
17 *893:A_N *893:B 7.53303e-06
18 *893:A_N *894:B1 1.22412e-05
19 *893:A_N *120:163 7.49001e-05
20 *893:A_N *123:85 0.000259704
21 *893:A_N *131:36 0.000191495
22 *895:A2 *892:D 3.5471e-05
23 *897:A2 *897:B1 0.000130433
24 *897:A2 *54:10 0
25 *897:A2 *133:30 0.000243578
26 *897:A2 *147:93 1.59312e-05
27 *902:D *875:C 0.000230604
28 *902:D *112:8 0.000270682
29 *902:D *134:33 2.80512e-05
30 *51:8 *892:D 2.26497e-05
31 *51:8 *915:CLK 0
32 *51:8 *52:10 0
33 *51:8 *131:25 8.29264e-05
34 *51:8 *131:36 3.33144e-05
35 *51:29 *894:B1 0.000246129
36 *51:29 *917:CLK 0
37 *51:29 *52:10 0.000185434
38 *51:29 *131:6 0.000216471
39 *51:29 *131:8 5.3304e-05
40 *51:29 *132:93 1.76557e-05
41 *51:39 *867:B 2.02517e-05
42 *51:39 *917:CLK 0.000118727
43 *51:39 *53:8 0.000318051
44 *51:39 *134:8 0.000228001
45 *51:39 *147:78 3.03981e-05
46 *51:48 *134:8 1.40958e-05
47 *51:48 *147:78 5.50049e-05
48 *51:50 *867:A 2.03555e-05
49 *51:50 *875:C 1.78655e-05
50 *51:50 *106:12 0
51 *51:50 *132:47 0
52 *51:50 *133:30 1.01436e-05
53 *51:50 *134:12 9.63642e-05
54 *51:60 *901:A2 0.00018978
55 *51:60 *948:A 9.00922e-05
56 *51:60 *57:8 0
57 *51:60 *112:16 0
58 *51:60 *121:94 0
59 *51:60 *147:10 0
60 *917:D *51:39 7.10068e-06
61 *21:10 *895:A2 0
62 *47:10 *897:A2 4.60263e-05
63 *47:10 *902:D 6.17437e-06
64 *47:10 *51:50 0.000104133
65 *47:47 *51:50 2.46922e-05
66 *50:12 *893:A_N 0
*RES
1 *892:X *51:6 38 
2 *51:6 *51:8 1.55357 
3 *51:8 *893:A_N 43.5929 
4 *51:8 *51:29 23.7829 
5 *51:29 *51:39 15.5771 
6 *51:39 *896:C 23 
7 *51:39 *51:48 15.6214 
8 *51:48 *51:50 3.66643 
9 *51:50 *51:60 28.2364 
10 *51:60 *901:A3 23 
11 *51:50 *902:D 41.48 
12 *51:48 *897:A2 43.4271 
13 *51:29 *894:A2 23 
14 *51:6 *895:A2 42.9093 
*END

*D_NET *52 0.00101514
*CONN
*I *895:B1 I *D sky130_fd_sc_hd__a21oi_2
*I *894:Y O *D sky130_fd_sc_hd__o21ai_2
*CAP
1 *895:B1 0
2 *894:Y 0.0002987
3 *52:10 0.0002987
4 *52:10 *892:D 0
5 *52:10 *894:A1 0
6 *52:10 *894:B1 0.000143655
7 *52:10 *132:21 0
8 *52:10 *132:93 2.4754e-05
9 *21:10 *52:10 6.38947e-05
10 *51:8 *52:10 0
11 *51:29 *52:10 0.000185434
*RES
1 *894:Y *52:10 45.1257 
2 *52:10 *895:B1 38 
*END

*D_NET *53 0.00189695
*CONN
*I *898:A_N I *D sky130_fd_sc_hd__and3b_2
*I *900:A2 I *D sky130_fd_sc_hd__o21ba_2
*I *899:A2 I *D sky130_fd_sc_hd__a211o_2
*I *896:X O *D sky130_fd_sc_hd__and3_2
*CAP
1 *898:A_N 0
2 *900:A2 8.55528e-05
3 *899:A2 0.000141149
4 *896:X 8.04586e-05
5 *53:25 0.000244244
6 *53:8 0.000380298
7 *899:A2 *899:A1 5.03449e-05
8 *899:A2 *900:A1 7.55491e-05
9 *899:A2 *55:10 0
10 *900:A2 *900:A1 5.67058e-05
11 *53:8 *917:CLK 0.000400204
12 *53:25 *900:A1 6.4393e-05
13 *916:D *53:25 0
14 *23:8 *53:25 0
15 *51:39 *53:8 0.000318051
*RES
1 *896:X *53:8 42.4329 
2 *53:8 *899:A2 41.3143 
3 *53:8 *53:25 18.0243 
4 *53:25 *900:A2 25.0714 
5 *53:25 *898:A_N 23 
*END

*D_NET *54 0.000416457
*CONN
*I *898:B I *D sky130_fd_sc_hd__and3b_2
*I *897:X O *D sky130_fd_sc_hd__a21o_2
*CAP
1 *898:B 0
2 *897:X 0.000187963
3 *54:10 0.000187963
4 *54:10 *132:32 4.05309e-05
5 *897:A2 *54:10 0
*RES
1 *897:X *54:10 40.7757 
2 *54:10 *898:B 38 
*END

*D_NET *55 0.000956392
*CONN
*I *900:B1_N I *D sky130_fd_sc_hd__o21ba_2
*I *899:X O *D sky130_fd_sc_hd__a211o_2
*CAP
1 *900:B1_N 0
2 *899:X 0.000379106
3 *55:10 0.000379106
4 *55:10 *894:A1 0
5 *55:10 *900:A1 0
6 *55:10 *112:8 5.72217e-05
7 *55:10 *132:21 0
8 *899:A2 *55:10 0
9 *23:8 *55:10 0.000140958
*RES
1 *899:X *55:10 44.7736 
2 *55:10 *900:B1_N 38 
*END

*D_NET *56 0.000859666
*CONN
*I *903:C I *D sky130_fd_sc_hd__and3b_2
*I *901:X O *D sky130_fd_sc_hd__a31o_2
*CAP
1 *903:C 1.26646e-05
2 *901:X 0.000262339
3 *56:8 0.000275003
4 *903:C *120:114 3.7122e-06
5 *56:8 *112:16 0.000138505
6 *56:8 *114:14 0
7 *56:8 *132:64 0
8 *24:10 *56:8 0.000167443
*RES
1 *901:X *56:8 43.7793 
2 *56:8 *903:C 38.1916 
*END

*D_NET *57 0.0078714
*CONN
*I *904:B I *D sky130_fd_sc_hd__or2_2
*I *905:B I *D sky130_fd_sc_hd__nand2_2
*I *909:A2 I *D sky130_fd_sc_hd__a21o_2
*I *806:D I *D sky130_fd_sc_hd__and4_2
*I *903:A_N I *D sky130_fd_sc_hd__and3b_2
*I *803:D I *D sky130_fd_sc_hd__and4_2
*I *902:X O *D sky130_fd_sc_hd__and4_2
*CAP
1 *904:B 0
2 *905:B 0.000358612
3 *909:A2 0.000249257
4 *806:D 0
5 *903:A_N 0.0003529
6 *803:D 0
7 *902:X 5.58952e-05
8 *57:56 0.000225077
9 *57:48 0.000670759
10 *57:28 0.000553227
11 *57:20 0.000812996
12 *57:16 0.000774857
13 *57:14 0.000957227
14 *57:8 0.00101312
15 *903:A_N *120:114 0.000259176
16 *903:A_N *137:44 1.32314e-05
17 *905:B *136:14 2.4754e-05
18 *905:B *136:20 0.000207182
19 *905:B *136:31 3.71198e-05
20 *905:B *137:29 1.17001e-05
21 *909:A2 *61:8 0
22 *57:8 *112:16 8.62876e-05
23 *57:14 *904:A 2.93845e-05
24 *57:14 *58:10 0.000227208
25 *57:14 *147:10 2.14301e-05
26 *57:20 *909:B1 6.79176e-05
27 *57:20 *107:18 6.9995e-05
28 *57:20 *136:31 2.76611e-06
29 *57:20 *136:33 0.000201671
30 *57:20 *138:38 4.45839e-05
31 *57:28 *107:18 9.86551e-06
32 *57:28 *120:114 2.47015e-05
33 *57:56 *806:C 1.37246e-05
34 *57:56 *872:C 2.93845e-05
35 *57:56 *909:A1 3.68634e-05
36 *57:56 *61:8 0.000181778
37 *57:56 *138:14 0.000246748
38 *51:60 *57:8 0
*RES
1 *902:X *57:8 39.2014 
2 *57:8 *57:14 27.4286 
3 *57:14 *57:16 15 
4 *57:16 *57:20 17.8289 
5 *57:20 *57:28 23.7205 
6 *57:28 *803:D 23 
7 *57:28 *903:A_N 30.4779 
8 *57:20 *57:48 0.399467 
9 *57:48 *57:56 28.8725 
10 *57:56 *806:D 23 
11 *57:48 *909:A2 47.5484 
12 *57:16 *905:B 44.0486 
13 *57:14 *904:B 23 
*END

*D_NET *58 0.000955964
*CONN
*I *906:B I *D sky130_fd_sc_hd__and3_2
*I *904:X O *D sky130_fd_sc_hd__or2_2
*CAP
1 *906:B 0
2 *904:X 0.000364378
3 *58:10 0.000364378
4 *58:10 *60:10 0
5 *58:10 *147:61 0
6 *908:C1 *58:10 0
7 *57:14 *58:10 0.000227208
*RES
1 *904:X *58:10 44.8979 
2 *58:10 *906:B 38 
*END

*D_NET *59 0.00235624
*CONN
*I *908:A2 I *D sky130_fd_sc_hd__o211a_2
*I *907:B I *D sky130_fd_sc_hd__nand2_2
*I *906:C I *D sky130_fd_sc_hd__and3_2
*I *905:Y O *D sky130_fd_sc_hd__nand2_2
*CAP
1 *908:A2 0
2 *907:B 4.01155e-05
3 *906:C 0
4 *905:Y 7.27458e-05
5 *59:24 0.000132491
6 *59:16 0.00051629
7 *59:8 0.000416429
8 *59:8 *102:27 1.28818e-05
9 *59:8 *136:20 0.000123501
10 *59:8 *137:29 0.000144186
11 *59:16 *920:CLK 7.06229e-05
12 *59:16 *60:10 0.000431247
13 *59:16 *102:27 0.000376252
14 *59:24 *920:CLK 1.94812e-05
15 *59:24 *60:10 0
*RES
1 *905:Y *59:8 26.0243 
2 *59:8 *59:16 38.0786 
3 *59:16 *59:24 31.8229 
4 *59:24 *906:C 23 
5 *59:16 *907:B 23.8493 
6 *59:8 *908:A2 23 
*END

*D_NET *60 0.00105778
*CONN
*I *908:B1 I *D sky130_fd_sc_hd__o211a_2
*I *907:Y O *D sky130_fd_sc_hd__nand2_2
*CAP
1 *908:B1 0
2 *907:Y 0.000280758
3 *60:10 0.000280758
4 *60:10 *920:CLK 2.93747e-05
5 *60:10 *102:27 1.12487e-05
6 *908:C1 *60:10 2.43903e-05
7 *58:10 *60:10 0
8 *59:16 *60:10 0.000431247
9 *59:24 *60:10 0
*RES
1 *907:Y *60:10 44.0486 
2 *60:10 *908:B1 38 
*END

*D_NET *61 0.00127012
*CONN
*I *804:C I *D sky130_fd_sc_hd__and3b_2
*I *909:X O *D sky130_fd_sc_hd__a21o_2
*CAP
1 *804:C 3.22037e-05
2 *909:X 0.000269555
3 *61:8 0.000301759
4 *804:C *872:C 9.05898e-05
5 *804:C *64:10 0.000165001
6 *61:8 *909:B1 4.30948e-05
7 *61:8 *107:18 0
8 *61:8 *120:102 0
9 *61:8 *138:38 0.000104515
10 *909:A2 *61:8 0
11 *27:8 *61:8 8.16253e-05
12 *57:56 *61:8 0.000181778
*RES
1 *909:X *61:8 44.1314 
2 *61:8 *804:C 39.8125 
*END

*D_NET *62 0.00471304
*CONN
*I *804:A_N I *D sky130_fd_sc_hd__and3b_2
*I *805:B I *D sky130_fd_sc_hd__or2_2
*I *808:A3 I *D sky130_fd_sc_hd__a31o_2
*I *811:D I *D sky130_fd_sc_hd__and4_2
*I *803:X O *D sky130_fd_sc_hd__and4_2
*CAP
1 *804:A_N 0
2 *805:B 0.0003142
3 *808:A3 0
4 *811:D 0
5 *803:X 0.000158957
6 *62:32 0.00034562
7 *62:18 0.000626187
8 *62:12 0.0010758
9 *62:8 0.000639984
10 *805:B *125:10 0.000230726
11 *62:8 *872:D 0.000182076
12 *62:8 *120:102 0
13 *62:8 *120:114 0.000301419
14 *62:12 *872:D 6.07611e-06
15 *62:12 *64:10 0.000274111
16 *62:12 *64:12 0.000164967
17 *62:12 *113:10 0
18 *62:12 *120:51 0.000103752
19 *62:12 *120:102 0
20 *62:18 *923:CLK 5.5792e-05
21 *62:18 *65:10 5.5792e-05
22 *62:32 *808:B1 8.36198e-05
23 *62:32 *929:CLK 2.95423e-05
24 *923:D *805:B 5.55743e-06
25 *923:D *62:18 5.88615e-05
*RES
1 *803:X *62:8 43.075 
2 *62:8 *62:12 27.1179 
3 *62:12 *62:18 4.59857 
4 *62:18 *62:32 34.9921 
5 *62:32 *811:D 23 
6 *62:18 *808:A3 23 
7 *62:12 *805:B 29.3593 
8 *62:8 *804:A_N 38 
*END

*D_NET *63 0.00098932
*CONN
*I *807:C I *D sky130_fd_sc_hd__and3b_2
*I *805:X O *D sky130_fd_sc_hd__or2_2
*CAP
1 *807:C 0.000295026
2 *805:X 0.000127968
3 *63:8 0.000422993
4 *63:8 *124:49 0.000129402
5 *28:10 *807:C 1.39317e-05
*RES
1 *805:X *63:8 41.3143 
2 *63:8 *807:C 42.6711 
*END

*D_NET *64 0.00796591
*CONN
*I *807:A_N I *D sky130_fd_sc_hd__and3b_2
*I *809:A2 I *D sky130_fd_sc_hd__o21ba_2
*I *816:A2 I *D sky130_fd_sc_hd__a31o_2
*I *817:C I *D sky130_fd_sc_hd__nand4_2
*I *820:C I *D sky130_fd_sc_hd__nand4_2
*I *810:A2 I *D sky130_fd_sc_hd__a21o_2
*I *814:A2 I *D sky130_fd_sc_hd__a31o_2
*I *819:A3 I *D sky130_fd_sc_hd__a41o_2
*I *806:X O *D sky130_fd_sc_hd__and4_2
*CAP
1 *807:A_N 0
2 *809:A2 4.02683e-05
3 *816:A2 0.000118972
4 *817:C 3.09722e-05
5 *820:C 1.13475e-05
6 *810:A2 2.14194e-05
7 *814:A2 0
8 *819:A3 0
9 *806:X 0.000413027
10 *64:53 0.00019304
11 *64:43 0.00031802
12 *64:41 0.000134965
13 *64:34 0.0001236
14 *64:26 0.000492187
15 *64:16 0.000568537
16 *64:14 0.000547698
17 *64:12 0.000528914
18 *64:10 0.000661983
19 *809:A2 *124:14 0.000187363
20 *809:A2 *125:38 0.000100477
21 *809:A2 *125:46 0.000100486
22 *810:A2 *820:D 5.90675e-06
23 *816:A2 *816:A3 5.45644e-05
24 *820:C *820:B 5.90675e-06
25 *820:C *820:D 4.00259e-06
26 *64:10 *872:C 5.36192e-05
27 *64:10 *120:102 0.000277701
28 *64:12 *120:102 6.26356e-05
29 *64:12 *125:10 3.56377e-05
30 *64:14 *817:B 5.20619e-06
31 *64:14 *125:10 5.71002e-06
32 *64:14 *125:12 9.0968e-05
33 *64:16 *816:A3 0
34 *64:16 *817:B 8.60335e-05
35 *64:26 *817:B 2.76611e-06
36 *64:26 *819:A4 0
37 *64:26 *820:B 5.61255e-06
38 *64:26 *926:CLK 0.000265466
39 *64:26 *73:10 0.000226306
40 *64:26 *128:36 0
41 *64:26 *129:27 4.18201e-05
42 *64:34 *819:A4 5.62433e-06
43 *64:34 *821:C1 0.000138718
44 *64:34 *874:A 0.000143655
45 *64:34 *927:CLK 0.000236667
46 *64:34 *120:57 3.70187e-05
47 *64:34 *128:18 2.81138e-05
48 *64:43 *820:B 4.2062e-05
49 *64:43 *820:D 5.25848e-05
50 *64:43 *120:76 8.71791e-05
51 *64:53 *810:B1 9.84851e-05
52 *64:53 *814:A3 2.64616e-05
53 *64:53 *819:A2 0
54 *64:53 *820:D 0.000188336
55 *64:53 *120:76 0.000103647
56 *64:53 *126:21 3.70094e-05
57 *64:53 *126:32 0.000141888
58 *804:C *64:10 0.000165001
59 *28:10 *64:12 0
60 *32:10 *817:C 2.93747e-05
61 *32:10 *64:26 0.000141869
62 *62:12 *64:10 0.000274111
63 *62:12 *64:12 0.000164967
*RES
1 *806:X *64:10 48.6679 
2 *64:10 *64:12 6.13143 
3 *64:12 *64:14 5.075 
4 *64:14 *64:16 4.01857 
5 *64:16 *64:26 22.5607 
6 *64:26 *64:34 33.8321 
7 *64:34 *819:A3 23 
8 *64:26 *64:41 0.497143 
9 *64:41 *64:43 2.52714 
10 *64:43 *64:53 35.4064 
11 *64:53 *814:A2 23 
12 *64:43 *810:A2 23.4971 
13 *64:41 *820:C 23.4971 
14 *64:16 *817:C 38.6214 
15 *64:14 *816:A2 39.5743 
16 *64:12 *809:A2 40.0507 
17 *64:10 *807:A_N 38 
*END

*D_NET *65 0.000473338
*CONN
*I *809:B1_N I *D sky130_fd_sc_hd__o21ba_2
*I *808:X O *D sky130_fd_sc_hd__a31o_2
*CAP
1 *809:B1_N 0
2 *808:X 0.000133408
3 *65:10 0.000133408
4 *65:10 *923:CLK 5.68297e-05
5 *65:10 *113:10 7.64972e-05
6 *65:10 *145:91 1.7403e-05
7 *62:18 *65:10 5.5792e-05
*RES
1 *808:X *65:10 40.8793 
2 *65:10 *809:B1_N 38 
*END

*D_NET *66 0.00114849
*CONN
*I *812:C I *D sky130_fd_sc_hd__and3b_2
*I *810:X O *D sky130_fd_sc_hd__a21o_2
*CAP
1 *812:C 0.000241522
2 *810:X 0.000119348
3 *66:8 0.00036087
4 *812:C *812:A_N 5.70419e-05
5 *812:C *812:B 1.02949e-05
6 *812:C *874:C 2.07242e-05
7 *812:C *874:D 2.64616e-05
8 *66:8 *819:A2 0
9 *66:8 *120:76 8.62876e-05
10 *66:8 *126:10 6.25829e-05
11 *66:8 *126:21 0.000163361
*RES
1 *810:X *66:8 40.9621 
2 *66:8 *812:C 41.5266 
*END

*D_NET *67 0.00247636
*CONN
*I *815:A2 I *D sky130_fd_sc_hd__o21ba_2
*I *812:A_N I *D sky130_fd_sc_hd__and3b_2
*I *811:X O *D sky130_fd_sc_hd__and4_2
*CAP
1 *815:A2 0
2 *812:A_N 0.00028055
3 *811:X 0.000590266
4 *67:10 0.000870816
5 *812:A_N *812:B 3.17634e-05
6 *812:A_N *874:C 6.21225e-05
7 *812:A_N *126:21 0
8 *812:A_N *127:21 0.000140558
9 *812:A_N *145:16 0
10 *67:10 *811:A 0.000145171
11 *67:10 *813:A 0.000205518
12 *67:10 *929:CLK 6.06279e-05
13 *67:10 *127:21 6.07611e-06
14 *67:10 *143:29 2.58471e-05
15 *67:10 *145:16 0
16 *812:C *812:A_N 5.70419e-05
17 *30:8 *812:A_N 0
18 *34:10 *67:10 0
*RES
1 *811:X *67:10 49.3721 
2 *67:10 *812:A_N 44.8771 
3 *67:10 *815:A2 38 
*END

*D_NET *68 0.00503346
*CONN
*I *817:D I *D sky130_fd_sc_hd__nand4_2
*I *816:A3 I *D sky130_fd_sc_hd__a31o_2
*I *819:A4 I *D sky130_fd_sc_hd__a41o_2
*I *814:A3 I *D sky130_fd_sc_hd__a31o_2
*I *820:D I *D sky130_fd_sc_hd__nand4_2
*I *813:X O *D sky130_fd_sc_hd__and2_2
*CAP
1 *817:D 3.98682e-05
2 *816:A3 0.000268876
3 *819:A4 0.000448937
4 *814:A3 3.65124e-05
5 *820:D 0.000212749
6 *813:X 0.000160438
7 *68:34 0.000717813
8 *68:32 0.000322664
9 *68:23 0.000319308
10 *68:8 0.000373187
11 *816:A3 *70:10 0.00015153
12 *816:A3 *120:51 5.45644e-05
13 *816:A3 *145:61 0.000238498
14 *817:D *818:C 8.60475e-05
15 *819:A4 *874:A 3.79854e-05
16 *819:A4 *927:CLK 0.000216131
17 *819:A4 *129:27 1.02561e-05
18 *819:A4 *145:61 0.000216721
19 *820:D *810:A1 9.84794e-05
20 *820:D *810:B1 5.67058e-05
21 *820:D *814:B1 1.19692e-05
22 *820:D *819:A2 0
23 *820:D *820:B 4.2573e-05
24 *820:D *125:48 0
25 *820:D *125:50 0
26 *820:D *126:32 2.95125e-05
27 *68:8 *814:B1 0.000110795
28 *68:8 *126:32 0.00018105
29 *68:32 *814:A1 0.000103637
30 *68:32 *818:A 5.3304e-05
31 *68:32 *818:C 9.58714e-05
32 *810:A2 *820:D 5.90675e-06
33 *816:A2 *816:A3 5.45644e-05
34 *820:C *820:D 4.00259e-06
35 *64:16 *816:A3 0
36 *64:26 *819:A4 0
37 *64:34 *819:A4 5.62433e-06
38 *64:43 *820:D 5.25848e-05
39 *64:53 *814:A3 2.64616e-05
40 *64:53 *820:D 0.000188336
*RES
1 *813:X *68:8 43.075 
2 *68:8 *820:D 43.7586 
3 *68:8 *68:23 15 
4 *68:23 *814:A3 23.6214 
5 *68:23 *68:32 5.38571 
6 *68:32 *68:34 15 
7 *68:34 *819:A4 45.2914 
8 *68:34 *816:A3 45.2707 
9 *68:32 *817:D 24.0979 
*END

*D_NET *69 0.000450878
*CONN
*I *815:B1_N I *D sky130_fd_sc_hd__o21ba_2
*I *814:X O *D sky130_fd_sc_hd__a31o_2
*CAP
1 *815:B1_N 0.000215698
2 *814:X 0.000215698
3 *31:10 *815:B1_N 1.94812e-05
*RES
1 *814:X *815:B1_N 49.48 
*END

*D_NET *70 0.000924998
*CONN
*I *818:B I *D sky130_fd_sc_hd__and3_2
*I *816:X O *D sky130_fd_sc_hd__a31o_2
*CAP
1 *818:B 0
2 *816:X 0.000264285
3 *70:10 0.000264285
4 *70:10 *120:51 1.61361e-05
5 *70:10 *120:55 0.000115526
6 *70:10 *145:61 0.000113235
7 *816:A3 *70:10 0.00015153
*RES
1 *816:X *70:10 43.51 
2 *70:10 *818:B 38 
*END

*D_NET *71 0.00058169
*CONN
*I *818:C I *D sky130_fd_sc_hd__and3_2
*I *817:Y O *D sky130_fd_sc_hd__nand4_2
*CAP
1 *818:C 0.000128906
2 *817:Y 0.000128906
3 *817:D *818:C 8.60475e-05
4 *32:10 *818:C 0.00014196
5 *68:32 *818:C 9.58714e-05
*RES
1 *817:Y *818:C 49.3764 
*END

*D_NET *72 0.000552732
*CONN
*I *821:B1 I *D sky130_fd_sc_hd__o211a_2
*I *819:X O *D sky130_fd_sc_hd__a41o_2
*CAP
1 *821:B1 0
2 *819:X 0.000125312
3 *72:10 0.000125312
4 *72:10 *927:CLK 3.71251e-05
5 *72:10 *73:10 0.000166504
6 *72:10 *129:8 9.84794e-05
*RES
1 *819:X *72:10 41.3557 
2 *72:10 *821:B1 38 
*END

*D_NET *73 0.00164656
*CONN
*I *821:A2 I *D sky130_fd_sc_hd__o211a_2
*I *820:Y O *D sky130_fd_sc_hd__nand4_2
*CAP
1 *821:A2 0
2 *820:Y 0.000487229
3 *73:10 0.000487229
4 *73:10 *926:CLK 2.4754e-05
5 *73:10 *101:10 0.000136019
6 *73:10 *128:18 8.4047e-05
7 *73:10 *129:27 0
8 *926:D *73:10 3.44735e-05
9 *64:26 *73:10 0.000226306
10 *72:10 *73:10 0.000166504
*RES
1 *820:Y *73:10 47.1557 
2 *73:10 *821:A2 38 
*END

*D_NET *74 0.00103304
*CONN
*I *823:B I *D sky130_fd_sc_hd__nor2_2
*I *822:Y O *D sky130_fd_sc_hd__xnor2_2
*CAP
1 *823:B 0
2 *822:Y 0.000274561
3 *74:10 0.000274561
4 *74:10 *116:159 2.05042e-05
5 *74:10 *121:50 0.000350168
6 *35:10 *74:10 0.000113244
*RES
1 *822:Y *74:10 44.1729 
2 *74:10 *823:B 38 
*END

*D_NET *75 0.000864171
*CONN
*I *859:A2 I *D sky130_fd_sc_hd__a21o_2
*I *824:Y O *D sky130_fd_sc_hd__nand2_2
*CAP
1 *859:A2 0
2 *824:Y 0.000155079
3 *75:8 0.000155079
4 *75:8 *857:A1 7.03663e-05
5 *75:8 *859:A1 0.000105165
6 *75:8 *121:16 0.000378483
7 *46:8 *75:8 0
*RES
1 *824:Y *75:8 43.075 
2 *75:8 *859:A2 38 
*END

*D_NET *76 0.000937422
*CONN
*I *827:C I *D sky130_fd_sc_hd__and3b_2
*I *825:X O *D sky130_fd_sc_hd__a31o_2
*CAP
1 *827:C 0.000345974
2 *825:X 5.24296e-05
3 *76:8 0.000398404
4 *827:C *826:A 4.92407e-05
5 *827:C *120:30 3.08287e-05
6 *76:8 *110:46 1.14452e-05
7 *76:8 *116:115 2.1199e-05
8 *76:8 *120:30 2.79004e-05
*RES
1 *825:X *76:8 39.2014 
2 *76:8 *827:C 42.3862 
*END

*D_NET *77 0.000996586
*CONN
*I *827:A_N I *D sky130_fd_sc_hd__and3b_2
*I *831:A2 I *D sky130_fd_sc_hd__o21a_2
*I *826:X O *D sky130_fd_sc_hd__and3_2
*CAP
1 *827:A_N 0
2 *831:A2 0
3 *826:X 0.000214884
4 *77:16 0.00015046
5 *77:8 0.000365344
6 *77:8 *826:A 3.61695e-05
7 *77:8 *120:43 3.75094e-05
8 *77:16 *826:A 0.00010018
9 *77:16 *831:A1 1.14452e-05
10 *77:16 *121:50 0
11 *77:16 *143:11 8.05936e-05
*RES
1 *826:X *77:8 26.0243 
2 *77:8 *77:16 33.3557 
3 *77:16 *831:A2 23 
4 *77:8 *827:A_N 23 
*END

*D_NET *78 0.00152838
*CONN
*I *829:D I *D sky130_fd_sc_hd__nor4_2
*I *828:Y O *D sky130_fd_sc_hd__nand2_2
*CAP
1 *829:D 1.21291e-05
2 *828:Y 0.000297034
3 *78:10 0.000309163
4 *829:D *830:B 3.79854e-05
5 *829:D *99:10 5.50049e-05
6 *78:10 *828:A 0.000131735
7 *78:10 *828:B 0.000139357
8 *78:10 *831:A1 0.000293785
9 *78:10 *116:132 2.3529e-05
10 *78:10 *143:65 0.000228655
*RES
1 *828:Y *78:10 46.0579 
2 *78:10 *829:D 38.6214 
*END

*D_NET *79 0.00247162
*CONN
*I *830:B I *D sky130_fd_sc_hd__nor2_2
*I *832:B I *D sky130_fd_sc_hd__xor2_2
*I *829:Y O *D sky130_fd_sc_hd__nor4_2
*CAP
1 *830:B 0.000204392
2 *832:B 0
3 *829:Y 0.00061833
4 *79:8 0.000413938
5 *830:B *99:10 0.000109592
6 *79:8 *832:A 6.43005e-05
7 *79:8 *99:29 0.000423298
8 *79:8 *140:33 0.000291935
9 *79:8 *140:46 0.000277705
10 *79:8 *141:25 1.37349e-05
11 *79:8 *143:65 2.68674e-06
12 *829:D *830:B 3.79854e-05
13 *36:8 *79:8 1.37246e-05
*RES
1 *829:Y *79:8 47.6529 
2 *79:8 *832:B 15 
3 *829:Y *830:B 49.6664 
*END

*D_NET *80 0.00106574
*CONN
*I *831:B1 I *D sky130_fd_sc_hd__o21a_2
*I *830:Y O *D sky130_fd_sc_hd__nor2_2
*CAP
1 *831:B1 0.000109503
2 *830:Y 0.000123506
3 *80:8 0.000233009
4 *831:B1 *139:34 6.70017e-05
5 *80:8 *831:A1 0.000354788
6 *80:8 *121:50 0.000126936
7 *80:8 *121:83 5.09988e-05
*RES
1 *830:Y *80:8 42.7229 
2 *80:8 *831:B1 40.0507 
*END

*D_NET *81 0.00158581
*CONN
*I *833:C I *D sky130_fd_sc_hd__and3_2
*I *832:X O *D sky130_fd_sc_hd__xor2_2
*CAP
1 *833:C 0.000161492
2 *832:X 0.000172475
3 *81:8 0.000333967
4 *833:C *110:20 0.000665972
5 *833:C *146:68 7.42209e-05
6 *81:8 *832:A 0
7 *81:8 *142:19 0
8 *931:D *833:C 0.000177678
*RES
1 *832:X *81:8 41.3143 
2 *81:8 *833:C 45.2914 
*END

*D_NET *82 0.0143508
*CONN
*I *839:S I *D sky130_fd_sc_hd__mux2_1
*I *842:S I *D sky130_fd_sc_hd__mux2_1
*I *836:S I *D sky130_fd_sc_hd__mux2_1
*I *854:S I *D sky130_fd_sc_hd__mux2_1
*I *851:S I *D sky130_fd_sc_hd__mux2_1
*I *845:S I *D sky130_fd_sc_hd__mux2_1
*I *848:S I *D sky130_fd_sc_hd__mux2_1
*I *857:B1 I *D sky130_fd_sc_hd__a32o_2
*I *834:X O *D sky130_fd_sc_hd__o31a_2
*CAP
1 *839:S 0.000105436
2 *842:S 0.000489155
3 *836:S 0
4 *854:S 0
5 *851:S 0.000126022
6 *845:S 0.000321102
7 *848:S 0.000232708
8 *857:B1 0
9 *834:X 0
10 *82:106 0.00151834
11 *82:95 0.00152012
12 *82:39 0.000705262
13 *82:37 0.000699821
14 *82:29 0.00075125
15 *82:16 0.000233932
16 *82:6 0.00104887
17 *82:4 0.0010824
18 *839:S *835:A0 4.67488e-05
19 *842:S *85:10 0.000139647
20 *842:S *152:10 0
21 *842:S *153:8 0
22 *845:S *845:A1 4.37033e-05
23 *845:S *90:10 1.94693e-05
24 *845:S *148:133 5.50106e-05
25 *848:S *844:A0 0
26 *848:S *846:A 0.000140661
27 *848:S *848:A1 1.94812e-05
28 *848:S *91:10 0.000384805
29 *848:S *144:50 0
30 *848:S *164:8 0
31 *851:S *851:A0 1.25713e-05
32 *851:S *851:A1 2.10502e-05
33 *82:6 *100:23 9.84851e-05
34 *82:6 *100:32 0.00061406
35 *82:6 *100:45 0.000109404
36 *82:16 *856:A1 9.84851e-05
37 *82:16 *98:8 4.21594e-06
38 *82:16 *100:8 0.000101657
39 *82:16 *100:23 4.17736e-05
40 *82:16 *148:20 4.10817e-05
41 *82:16 *167:18 0.000212621
42 *82:29 *854:A1 0
43 *82:29 *960:A 5.41288e-05
44 *82:29 *95:10 0
45 *82:29 *104:8 7.03869e-05
46 *82:29 *104:16 0
47 *82:29 *167:18 0
48 *82:37 *847:S 0.00029205
49 *82:37 *850:A0 8.78864e-05
50 *82:37 *854:A1 0.000241259
51 *82:37 *960:A 4.39607e-05
52 *82:37 *104:16 0.000411013
53 *82:37 *104:18 0.000141038
54 *82:37 *148:108 0.000196165
55 *82:39 *846:A 2.80852e-05
56 *82:39 *847:S 0.00019649
57 *82:39 *91:10 0.000127272
58 *82:39 *144:35 0
59 *82:39 *148:108 0.000362837
60 *82:95 *836:A1 0.000102971
61 *82:95 *878:B1 0.0001661
62 *82:95 *100:45 3.42398e-05
63 *82:95 *100:69 8.48502e-06
64 *82:95 *109:35 2.65505e-05
65 *82:95 *115:41 9.41704e-05
66 *82:95 *118:8 2.50118e-05
67 *82:95 *148:45 0.000134971
68 *82:95 *151:12 0.00014411
69 *82:106 *836:A1 4.21921e-05
70 *82:106 *879:A 0.000145171
71 *82:106 *83:12 0
72 *82:106 *85:10 3.70187e-05
73 *82:106 *109:35 3.69001e-05
74 *82:106 *116:115 0
75 *82:106 *161:10 1.22803e-05
76 *4:18 *82:16 4.87456e-05
77 *39:10 *842:S 0
78 *40:14 *82:106 0
*RES
1 *834:X *82:4 23 
2 *82:4 *82:6 11.1029 
3 *82:6 *82:16 35.7482 
4 *82:16 *857:B1 23 
5 *82:6 *82:29 36.525 
6 *82:29 *82:37 28.1329 
7 *82:37 *82:39 5.42714 
8 *82:39 *848:S 44.7529 
9 *82:39 *845:S 43.8829 
10 *82:37 *851:S 40.7136 
11 *82:29 *854:S 23 
12 *82:4 *82:95 42.76 
13 *82:95 *836:S 23 
14 *82:95 *82:106 33.0629 
15 *82:106 *842:S 47.2593 
16 *82:106 *839:S 39.5743 
*END

*D_NET *83 0.00199735
*CONN
*I *836:A0 I *D sky130_fd_sc_hd__mux2_1
*I *835:X O *D sky130_fd_sc_hd__mux2_1
*CAP
1 *836:A0 0
2 *835:X 4.15645e-05
3 *83:12 0.000587421
4 *83:8 0.000628985
5 *83:8 *835:S 7.44257e-05
6 *83:12 *84:8 0
7 *83:12 *148:47 8.96625e-05
8 *83:12 *148:57 0.000124867
9 *83:12 *162:10 9.04083e-05
10 *39:10 *83:8 0.000141052
11 *40:14 *83:12 0.000218962
12 *82:106 *83:12 0
*RES
1 *835:X *83:8 39.5743 
2 *83:8 *83:12 28.8786 
3 *83:12 *836:A0 23 
*END

*D_NET *84 0.00179565
*CONN
*I *837:B I *D sky130_fd_sc_hd__or2_2
*I *836:X O *D sky130_fd_sc_hd__mux2_1
*CAP
1 *837:B 2.5164e-05
2 *836:X 0.000466401
3 *84:8 0.000491565
4 *837:B *148:57 5.50106e-05
5 *84:8 *104:43 0
6 *84:8 *148:47 0.000314316
7 *84:8 *148:57 0.000431909
8 *84:8 *148:61 1.12863e-05
9 *38:10 *84:8 0
10 *83:12 *84:8 0
*RES
1 *836:X *84:8 48.7093 
2 *84:8 *837:B 38.6214 
*END

*D_NET *85 0.00140422
*CONN
*I *839:A0 I *D sky130_fd_sc_hd__mux2_1
*I *838:X O *D sky130_fd_sc_hd__mux2_1
*CAP
1 *839:A0 0
2 *838:X 0.000449593
3 *85:10 0.000449593
4 *85:10 *838:A1 0.00015694
5 *85:10 *161:10 0.000166522
6 *842:S *85:10 0.000139647
7 *933:D *85:10 4.9054e-06
8 *82:106 *85:10 3.70187e-05
*RES
1 *838:X *85:10 45.6436 
2 *85:10 *839:A0 38 
*END

*D_NET *86 0.00113177
*CONN
*I *840:B I *D sky130_fd_sc_hd__or2_2
*I *839:X O *D sky130_fd_sc_hd__mux2_1
*CAP
1 *840:B 0
2 *839:X 0.000373045
3 *86:8 0.000373045
4 *86:8 *835:A0 0.000272383
5 *86:8 *835:S 0.000113293
*RES
1 *839:X *86:8 28.8829 
2 *86:8 *840:B 23 
*END

*D_NET *87 0.00126275
*CONN
*I *842:A0 I *D sky130_fd_sc_hd__mux2_1
*I *841:X O *D sky130_fd_sc_hd__mux2_1
*CAP
1 *842:A0 3.83684e-05
2 *841:X 0.000249508
3 *87:12 0.000287877
4 *842:A0 *842:A1 5.67058e-05
5 *87:12 *838:A0 9.84794e-05
6 *87:12 *842:A1 8.62783e-05
7 *87:12 *933:CLK 0.000357614
8 *87:12 *162:10 3.47781e-05
9 *40:14 *87:12 5.31444e-05
*RES
1 *841:X *87:12 44.0071 
2 *87:12 *842:A0 38.6214 
*END

*D_NET *88 0.000151486
*CONN
*I *843:B I *D sky130_fd_sc_hd__or2_2
*I *842:X O *D sky130_fd_sc_hd__mux2_1
*CAP
1 *843:B 6.47966e-05
2 *842:X 6.47966e-05
3 *40:8 *843:B 2.18926e-05
*RES
1 *842:X *843:B 47.1186 
*END

*D_NET *89 0.00120379
*CONN
*I *845:A0 I *D sky130_fd_sc_hd__mux2_1
*I *844:X O *D sky130_fd_sc_hd__mux2_1
*CAP
1 *845:A0 0
2 *844:X 0.000483381
3 *89:10 0.000483381
4 *89:10 *844:A0 0
5 *89:10 *845:A1 0
6 *89:10 *846:A 0
7 *89:10 *90:10 6.28488e-05
8 *89:10 *104:55 3.22879e-05
9 *89:10 *144:50 0
10 *41:8 *89:10 0.000141888
*RES
1 *844:X *89:10 46.8657 
2 *89:10 *845:A0 38 
*END

*D_NET *90 0.000443192
*CONN
*I *846:B I *D sky130_fd_sc_hd__or2_2
*I *845:X O *D sky130_fd_sc_hd__mux2_1
*CAP
1 *846:B 0
2 *845:X 0.000163048
3 *90:10 0.000163048
4 *90:10 *846:A 0
5 *90:10 *144:50 3.47781e-05
6 *845:S *90:10 1.94693e-05
7 *89:10 *90:10 6.28488e-05
*RES
1 *845:X *90:10 41.2314 
2 *90:10 *846:B 38 
*END

*D_NET *91 0.0014509
*CONN
*I *848:A0 I *D sky130_fd_sc_hd__mux2_1
*I *847:X O *D sky130_fd_sc_hd__mux2_1
*CAP
1 *848:A0 0
2 *847:X 0.000302096
3 *91:10 0.000302096
4 *91:10 *847:A1 0.000141954
5 *91:10 *92:10 0.000192681
6 *91:10 *144:35 0
7 *848:S *91:10 0.000384805
8 *82:39 *91:10 0.000127272
*RES
1 *847:X *91:10 46.41 
2 *91:10 *848:A0 38 
*END

*D_NET *92 0.000804785
*CONN
*I *849:B I *D sky130_fd_sc_hd__or2_2
*I *848:X O *D sky130_fd_sc_hd__mux2_1
*CAP
1 *849:B 0
2 *848:X 0.000274622
3 *92:10 0.000274622
4 *92:10 *144:35 0
5 *42:8 *92:10 6.28591e-05
6 *91:10 *92:10 0.000192681
*RES
1 *848:X *92:10 44.1729 
2 *92:10 *849:B 38 
*END

*D_NET *93 0.000930905
*CONN
*I *851:A0 I *D sky130_fd_sc_hd__mux2_1
*I *850:X O *D sky130_fd_sc_hd__mux2_1
*CAP
1 *851:A0 0.000133459
2 *850:X 0.000232443
3 *93:8 0.000365903
4 *851:A0 *851:A1 0.000147656
5 *93:8 *165:8 3.88725e-05
6 *851:S *851:A0 1.25713e-05
*RES
1 *850:X *93:8 42.0186 
2 *93:8 *851:A0 40.0507 
*END

*D_NET *94 0.000733425
*CONN
*I *852:B I *D sky130_fd_sc_hd__or2_2
*I *851:X O *D sky130_fd_sc_hd__mux2_1
*CAP
1 *852:B 0
2 *851:X 0.000310515
3 *94:10 0.000310515
4 *94:10 *144:35 0.000112396
*RES
1 *851:X *94:10 42.5571 
2 *94:10 *852:B 38 
*END

*D_NET *95 0.000559995
*CONN
*I *854:A0 I *D sky130_fd_sc_hd__mux2_1
*I *853:X O *D sky130_fd_sc_hd__mux2_1
*CAP
1 *854:A0 0
2 *853:X 0.000167185
3 *95:10 0.000167185
4 *95:10 *853:A1 0.000139346
5 *95:10 *104:16 8.62783e-05
6 *82:29 *95:10 0
*RES
1 *853:X *95:10 40.7757 
2 *95:10 *854:A0 38 
*END

*D_NET *96 0.000758069
*CONN
*I *855:B I *D sky130_fd_sc_hd__or2_2
*I *854:X O *D sky130_fd_sc_hd__mux2_1
*CAP
1 *855:B 0
2 *854:X 0.000345353
3 *96:10 0.000345353
4 *96:10 *938:CLK 3.673e-05
5 *96:10 *960:A 3.06338e-05
6 *96:10 *104:16 0
*RES
1 *854:X *96:10 43.1371 
2 *96:10 *855:B 38 
*END

*D_NET *97 0.00165366
*CONN
*I *858:A I *D sky130_fd_sc_hd__or2_2
*I *856:X O *D sky130_fd_sc_hd__a31o_2
*CAP
1 *858:A 0
2 *856:X 0.000521635
3 *97:10 0.000521635
4 *97:10 *857:A1 0
5 *97:10 *857:A3 0.000246757
6 *97:10 *110:28 4.9844e-05
7 *97:10 *121:16 9.26098e-05
8 *97:10 *149:16 0.00010655
9 *97:10 *149:36 0.000114626
*RES
1 *856:X *97:10 47.5079 
2 *97:10 *858:A 38 
*END

*D_NET *98 0.00108193
*CONN
*I *858:B I *D sky130_fd_sc_hd__or2_2
*I *857:X O *D sky130_fd_sc_hd__a32o_2
*CAP
1 *858:B 0.000361292
2 *857:X 0.000130932
3 *98:8 0.000492224
4 *858:B *146:26 8.17741e-05
5 *98:8 *100:8 0
6 *98:8 *167:8 0
7 *939:D *858:B 1.14876e-05
8 *82:16 *98:8 4.21594e-06
*RES
1 *857:X *98:8 40.2579 
2 *98:8 *858:B 43.1579 
*END

*D_NET *99 0.00306682
*CONN
*I *871:C I *D sky130_fd_sc_hd__or4b_2
*I *829:A I *D sky130_fd_sc_hd__nor4_2
*I *860:Y O *D sky130_fd_sc_hd__inv_2
*CAP
1 *871:C 0
2 *829:A 0.00011444
3 *860:Y 0.000257095
4 *99:29 0.00031402
5 *99:10 0.000685555
6 *829:A *100:85 8.79198e-05
7 *829:A *115:33 8.06804e-06
8 *99:10 *829:C 4.46775e-05
9 *99:10 *860:A 5.50106e-05
10 *99:10 *115:14 0.000460458
11 *99:10 *115:33 1.79651e-05
12 *99:29 *828:B 2.50922e-05
13 *99:29 *110:8 0
14 *99:29 *140:46 1.05235e-05
15 *99:29 *141:25 0.000111852
16 *99:29 *143:65 1.17049e-05
17 *829:D *99:10 5.50049e-05
18 *830:B *99:10 0.000109592
19 *36:8 *99:29 0.000274543
20 *79:8 *99:29 0.000423298
*RES
1 *860:Y *99:10 30.3329 
2 *99:10 *829:A 25.0714 
3 *99:10 *99:29 37.8507 
4 *99:29 *871:C 23 
*END

*D_NET *100 0.00836698
*CONN
*I *877:A I *D sky130_fd_sc_hd__nor2_2
*I *829:B I *D sky130_fd_sc_hd__nor4_2
*I *834:A1 I *D sky130_fd_sc_hd__o31a_2
*I *878:A1 I *D sky130_fd_sc_hd__o211a_2
*I *866:A I *D sky130_fd_sc_hd__nand2_2
*I *865:A I *D sky130_fd_sc_hd__and2_2
*I *856:A1 I *D sky130_fd_sc_hd__a31o_2
*I *861:Y O *D sky130_fd_sc_hd__inv_2
*CAP
1 *877:A 0
2 *829:B 0
3 *834:A1 0
4 *878:A1 0
5 *866:A 0
6 *865:A 0
7 *856:A1 0.000148476
8 *861:Y 0.000392291
9 *100:85 0.000619249
10 *100:69 0.000783272
11 *100:55 0.000184429
12 *100:47 0.000205424
13 *100:45 0.000288709
14 *100:38 9.49334e-05
15 *100:32 0.000351564
16 *100:23 0.000182395
17 *100:10 0.000177931
18 *100:8 0.000392291
19 *856:A1 *856:A3 0.000117475
20 *856:A1 *148:8 2.02517e-05
21 *856:A1 *149:36 0.000181256
22 *100:8 *857:A1 0.000425539
23 *100:23 *149:16 8.6949e-05
24 *100:23 *149:36 5.50106e-05
25 *100:32 *148:28 1.59071e-05
26 *100:32 *149:16 0.000405127
27 *100:38 *116:80 0.000164171
28 *100:38 *148:28 0.000110184
29 *100:45 *148:28 0.000406574
30 *100:47 *109:35 1.14154e-05
31 *100:55 *116:80 0
32 *100:55 *148:45 0.000245575
33 *100:69 *109:25 5.3304e-05
34 *100:69 *109:35 9.45591e-05
35 *100:69 *116:10 5.50049e-05
36 *100:69 *148:28 1.3523e-05
37 *100:85 *829:C 0
38 *100:85 *878:B1 4.21594e-06
39 *100:85 *105:25 1.69668e-05
40 *100:85 *115:33 0.000712551
41 *100:85 *115:41 1.14452e-05
42 *100:85 *116:10 0.000111852
43 *829:A *100:85 8.79198e-05
44 *4:18 *100:85 3.26475e-05
45 *15:11 *100:8 0
46 *82:6 *100:23 9.84851e-05
47 *82:6 *100:32 0.00061406
48 *82:6 *100:45 0.000109404
49 *82:16 *856:A1 9.84851e-05
50 *82:16 *100:8 0.000101657
51 *82:16 *100:23 4.17736e-05
52 *82:95 *100:45 3.42398e-05
53 *82:95 *100:69 8.48502e-06
54 *98:8 *100:8 0
*RES
1 *861:Y *100:8 45.8921 
2 *100:8 *100:10 15 
3 *100:10 *856:A1 27.3293 
4 *100:10 *100:23 1.57429 
5 *100:23 *865:A 23 
6 *100:23 *100:32 7.66429 
7 *100:32 *100:38 32.2579 
8 *100:38 *866:A 23 
9 *100:32 *100:45 4.43286 
10 *100:45 *100:47 0.497143 
11 *100:47 *100:55 33.9305 
12 *100:55 *878:A1 23 
13 *100:47 *834:A1 23 
14 *100:45 *100:69 3.50071 
15 *100:69 *100:85 43.5679 
16 *100:85 *829:B 23 
17 *100:69 *877:A 23 
*END

*D_NET *101 0.00137477
*CONN
*I *821:A1 I *D sky130_fd_sc_hd__o211a_2
*I *862:Y O *D sky130_fd_sc_hd__inv_2
*CAP
1 *821:A1 3.75251e-05
2 *862:Y 0.00036669
3 *101:10 0.000404215
4 *101:10 *862:A 4.79641e-05
5 *101:10 *128:18 8.4047e-05
6 *101:10 *128:36 0.000225275
7 *101:10 *128:40 6.17437e-06
8 *33:8 *101:10 6.68587e-05
9 *73:10 *101:10 0.000136019
*RES
1 *862:Y *101:10 46.6379 
2 *101:10 *821:A1 38.6162 
*END

*D_NET *102 0.00181639
*CONN
*I *908:A1 I *D sky130_fd_sc_hd__o211a_2
*I *907:A I *D sky130_fd_sc_hd__nand2_2
*I *863:Y O *D sky130_fd_sc_hd__inv_2
*CAP
1 *908:A1 0
2 *907:A 0
3 *863:Y 8.1184e-05
4 *102:27 0.000279722
5 *102:14 0.000282135
6 *102:6 0.000643041
7 *102:14 *920:CLK 0
8 *102:27 *136:10 0
9 *102:27 *136:20 1.37039e-05
10 *102:27 *137:29 0
11 *26:8 *102:27 0.000116224
12 *59:8 *102:27 1.28818e-05
13 *59:16 *102:27 0.000376252
14 *60:10 *102:27 1.12487e-05
*RES
1 *863:Y *102:6 24.0979 
2 *102:6 *102:14 34.3086 
3 *102:14 *907:A 23 
4 *102:6 *102:27 38.0423 
5 *102:27 *908:A1 23 
*END

*D_NET *103 0.00140267
*CONN
*I *882:B1 I *D sky130_fd_sc_hd__o211a_2
*I *884:A I *D sky130_fd_sc_hd__nand2_2
*I *864:Y O *D sky130_fd_sc_hd__inv_2
*CAP
1 *882:B1 0
2 *884:A 0
3 *864:Y 8.14101e-05
4 *103:21 0.000325186
5 *103:8 0.000406596
6 *103:8 *864:A 5.79559e-05
7 *103:8 *105:8 0.000105374
8 *103:8 *105:25 0.000143623
9 *103:21 *105:14 5.19048e-06
10 *103:21 *116:80 4.07715e-05
11 *103:21 *121:8 0.000165696
12 *103:21 *150:10 4.6318e-06
13 *4:18 *103:8 6.62315e-05
*RES
1 *864:Y *103:8 26.0243 
2 *103:8 *884:A 23 
3 *103:8 *103:21 35.9243 
4 *103:21 *882:B1 23 
*END

*D_NET *104 0.010777
*CONN
*I *853:S I *D sky130_fd_sc_hd__mux2_1
*I *850:S I *D sky130_fd_sc_hd__mux2_1
*I *883:B I *D sky130_fd_sc_hd__nor2_2
*I *835:S I *D sky130_fd_sc_hd__mux2_1
*I *838:S I *D sky130_fd_sc_hd__mux2_1
*I *841:S I *D sky130_fd_sc_hd__mux2_1
*I *844:S I *D sky130_fd_sc_hd__mux2_1
*I *847:S I *D sky130_fd_sc_hd__mux2_1
*I *865:X O *D sky130_fd_sc_hd__and2_2
*CAP
1 *853:S 0
2 *850:S 0
3 *883:B 0
4 *835:S 0.000331934
5 *838:S 9.31031e-05
6 *841:S 6.30879e-05
7 *844:S 0
8 *847:S 0.000328849
9 *865:X 6.18252e-05
10 *104:62 0.000156191
11 *104:55 0.000686817
12 *104:45 0.000848554
13 *104:43 0.00093797
14 *104:37 0.0012139
15 *104:18 0.00116926
16 *104:16 0.00055583
17 *104:10 0.000485024
18 *104:8 6.18252e-05
19 *835:S *835:A0 9.84851e-05
20 *835:S *840:A 5.56279e-05
21 *838:S *933:CLK 0.000219971
22 *841:S *933:CLK 0.000144494
23 *847:S *847:A0 9.5877e-05
24 *847:S *847:A1 2.32004e-05
25 *847:S *144:35 0
26 *104:8 *167:18 7.03869e-05
27 *104:16 *853:A1 7.88926e-05
28 *104:16 *854:A1 1.47563e-05
29 *104:16 *167:18 1.83564e-05
30 *104:37 *946:A 8.76927e-06
31 *104:37 *144:10 8.49387e-06
32 *104:37 *144:27 0.000314666
33 *104:37 *148:98 9.98158e-05
34 *104:43 *843:A 0
35 *104:43 *946:A 0.00016107
36 *104:43 *120:14 5.1986e-06
37 *104:43 *148:61 0
38 *104:43 *148:98 1.12863e-05
39 *104:45 *843:A 0
40 *104:55 *844:A0 1.41077e-05
41 *104:55 *154:8 0.000199885
42 *104:55 *155:6 0.000196184
43 *10:9 *104:55 0.000315857
44 *38:10 *104:43 0.000105829
45 *39:10 *835:S 0.000104353
46 *82:29 *104:8 7.03869e-05
47 *82:29 *104:16 0
48 *82:37 *847:S 0.00029205
49 *82:37 *104:16 0.000411013
50 *82:37 *104:18 0.000141038
51 *82:39 *847:S 0.00019649
52 *83:8 *835:S 7.44257e-05
53 *84:8 *104:43 0
54 *86:8 *835:S 0.000113293
55 *89:10 *104:55 3.22879e-05
56 *95:10 *104:16 8.62783e-05
57 *96:10 *104:16 0
*RES
1 *865:X *104:8 39.9057 
2 *104:8 *104:10 15 
3 *104:10 *104:16 25.9993 
4 *104:16 *104:18 1.90571 
5 *104:18 *847:S 46.0579 
6 *104:18 *104:37 41.3514 
7 *104:37 *104:43 9.48714 
8 *104:43 *104:45 2.96214 
9 *104:45 *104:55 30.7429 
10 *104:55 *844:S 23 
11 *104:45 *104:62 15 
12 *104:62 *841:S 24.5743 
13 *104:62 *838:S 25.5271 
14 *104:43 *835:S 45.7886 
15 *104:37 *883:B 38 
16 *104:16 *850:S 38 
17 *104:10 *853:S 23 
*END

*D_NET *105 0.00228055
*CONN
*I *834:B1 I *D sky130_fd_sc_hd__o31a_2
*I *878:B1 I *D sky130_fd_sc_hd__o211a_2
*I *884:B I *D sky130_fd_sc_hd__nand2_2
*I *866:Y O *D sky130_fd_sc_hd__nand2_2
*CAP
1 *834:B1 0
2 *878:B1 0.000117112
3 *884:B 0
4 *866:Y 0.000171556
5 *105:25 0.000430373
6 *105:14 4.52343e-05
7 *105:8 0.000530051
8 *878:B1 *109:25 1.01436e-05
9 *878:B1 *109:35 0
10 *878:B1 *115:41 0
11 *878:B1 *115:47 0.000190133
12 *878:B1 *148:45 1.78655e-05
13 *105:14 *864:A 0
14 *105:14 *116:80 0
15 *105:14 *121:8 1.05398e-05
16 *105:25 *864:A 2.1819e-05
17 *105:25 *109:25 0.000126343
18 *105:25 *116:10 4.08537e-05
19 *105:25 *116:18 9.64943e-05
20 *4:18 *105:8 2.35226e-05
21 *4:18 *105:25 7.03605e-06
22 *82:95 *878:B1 0.0001661
23 *100:85 *878:B1 4.21594e-06
24 *100:85 *105:25 1.69668e-05
25 *103:8 *105:8 0.000105374
26 *103:8 *105:25 0.000143623
27 *103:21 *105:14 5.19048e-06
*RES
1 *866:Y *105:8 25.5479 
2 *105:8 *105:14 30.8493 
3 *105:14 *884:B 23 
4 *105:8 *105:25 20.3857 
5 *105:25 *878:B1 41.3143 
6 *105:25 *834:B1 38 
*END

*D_NET *106 0.00155523
*CONN
*I *902:C I *D sky130_fd_sc_hd__and4_2
*I *901:A2 I *D sky130_fd_sc_hd__a31o_2
*I *867:X O *D sky130_fd_sc_hd__and2_2
*CAP
1 *902:C 0
2 *901:A2 0.000286845
3 *867:X 0.000212734
4 *106:12 0.000499579
5 *901:A2 *112:16 0.000173385
6 *901:A2 *132:51 1.14452e-05
7 *901:A2 *132:64 0
8 *106:12 *875:C 0
9 *106:12 *112:16 1.22803e-05
10 *106:12 *132:51 0.000169184
11 *51:50 *106:12 0
12 *51:60 *901:A2 0.00018978
*RES
1 *867:X *106:12 42.205 
2 *106:12 *901:A2 45.0429 
3 *106:12 *902:C 38 
*END

*D_NET *107 0.00184077
*CONN
*I *869:A I *D sky130_fd_sc_hd__inv_2
*I *868:Y O *D sky130_fd_sc_hd__nand2_2
*CAP
1 *869:A 0
2 *868:Y 8.25293e-05
3 *107:18 0.000400137
4 *107:10 0.000482666
5 *107:10 *868:B 0.00014196
6 *107:10 *909:B1 2.46922e-05
7 *107:10 *137:64 0.000131485
8 *107:18 *803:C 8.94487e-05
9 *107:18 *868:B 0.000306338
10 *107:18 *120:114 4.12336e-05
11 *107:18 *136:33 3.70187e-05
12 *107:18 *138:38 1.73279e-05
13 *27:8 *107:18 6.07611e-06
14 *57:20 *107:18 6.9995e-05
15 *57:28 *107:18 9.86551e-06
16 *61:8 *107:18 0
*RES
1 *868:Y *107:10 40.4236 
2 *107:10 *107:18 37.1464 
3 *107:18 *869:A 38 
*END

*D_NET *108 0.00161606
*CONN
*I *909:A1 I *D sky130_fd_sc_hd__a21o_2
*I *806:C I *D sky130_fd_sc_hd__and4_2
*I *869:Y O *D sky130_fd_sc_hd__inv_2
*CAP
1 *909:A1 0.000155167
2 *806:C 0.000109191
3 *869:Y 0.000354701
4 *108:8 0.000619058
5 *806:C *138:14 0.000136486
6 *909:A1 *138:14 0.00010803
7 *108:8 *921:CLK 3.06338e-05
8 *108:8 *138:8 1.05235e-05
9 *108:8 *138:38 1.07558e-05
10 *921:D *108:8 3.09254e-05
11 *57:56 *806:C 1.37246e-05
12 *57:56 *909:A1 3.68634e-05
*RES
1 *869:Y *108:8 42.4329 
2 *108:8 *806:C 40.2579 
3 *108:8 *909:A1 40.9621 
*END

*D_NET *109 0.00428964
*CONN
*I *834:A2 I *D sky130_fd_sc_hd__o31a_2
*I *879:B I *D sky130_fd_sc_hd__or2_2
*I *881:A I *D sky130_fd_sc_hd__nand2_2
*I *870:X O *D sky130_fd_sc_hd__and4bb_2
*CAP
1 *834:A2 0
2 *879:B 0
3 *881:A 6.27057e-05
4 *870:X 0.00032711
5 *109:35 0.000694912
6 *109:25 0.000936105
7 *109:8 0.000631009
8 *881:A *116:33 5.19838e-05
9 *881:A *121:42 4.96207e-05
10 *109:8 *870:A_N 0.00010018
11 *109:8 *116:33 1.14154e-05
12 *109:8 *121:42 0.000257576
13 *109:25 *864:A 4.14048e-05
14 *109:25 *115:33 0
15 *109:25 *116:10 6.7177e-06
16 *109:25 *116:18 0.000244526
17 *109:25 *148:45 6.16531e-05
18 *109:35 *115:41 0.0002246
19 *109:35 *116:94 0.000228903
20 *109:35 *116:100 0
21 *109:35 *120:30 0
22 *109:35 *151:12 0
23 *878:B1 *109:25 1.01436e-05
24 *878:B1 *109:35 0
25 *82:95 *109:35 2.65505e-05
26 *82:106 *109:35 3.69001e-05
27 *100:47 *109:35 1.14154e-05
28 *100:69 *109:25 5.3304e-05
29 *100:69 *109:35 9.45591e-05
30 *105:25 *109:25 0.000126343
*RES
1 *870:X *109:8 31.7414 
2 *109:8 *881:A 24.595 
3 *109:8 *109:25 36.0486 
4 *109:25 *109:35 44.9557 
5 *109:35 *879:B 23 
6 *109:25 *834:A2 23 
*END

*D_NET *110 0.00755283
*CONN
*I *825:A2 I *D sky130_fd_sc_hd__a31o_2
*I *824:A I *D sky130_fd_sc_hd__nand2_2
*I *857:A2 I *D sky130_fd_sc_hd__a32o_2
*I *871:X O *D sky130_fd_sc_hd__or4b_2
*CAP
1 *825:A2 0
2 *824:A 0
3 *857:A2 0
4 *871:X 0.00014891
5 *110:46 0.000416027
6 *110:28 0.000253555
7 *110:20 0.00139671
8 *110:8 0.00170809
9 *110:8 *140:46 1.05235e-05
10 *110:8 *142:8 8.43466e-05
11 *110:20 *882:A1 1.28818e-05
12 *110:20 *882:A2 0.00019004
13 *110:20 *882:C1 0.000181805
14 *110:20 *142:8 9.84794e-05
15 *110:20 *146:68 1.59071e-05
16 *110:20 *149:6 0.000165908
17 *110:28 *857:A1 0.00042553
18 *110:28 *121:16 0.00013118
19 *110:28 *149:6 0.000139357
20 *110:46 *870:D 4.08537e-05
21 *110:46 *116:100 0.000195248
22 *110:46 *116:115 3.31127e-05
23 *110:46 *116:128 0.000401825
24 *110:46 *120:30 0
25 *110:46 *139:66 0.000375331
26 *110:46 *140:33 9.68422e-05
27 *110:46 *140:46 1.62615e-05
28 *110:46 *142:19 1.12487e-05
29 *833:C *110:20 0.000665972
30 *17:10 *110:20 0.000275599
31 *76:8 *110:46 1.14452e-05
32 *97:10 *110:28 4.9844e-05
33 *99:29 *110:8 0
*RES
1 *871:X *110:8 25.5479 
2 *110:8 *110:20 23.1171 
3 *110:20 *110:28 37.3536 
4 *110:28 *857:A2 23 
5 *110:20 *824:A 23 
6 *110:8 *110:46 42.3871 
7 *110:46 *825:A2 23 
*END

*D_NET *111 0.000682048
*CONN
*I *876:A I *D sky130_fd_sc_hd__or4b_2
*I *872:X O *D sky130_fd_sc_hd__or4_2
*CAP
1 *876:A 0
2 *872:X 0.000253489
3 *111:10 0.000253489
4 *111:10 *113:10 3.71198e-05
5 *111:10 *114:14 3.70187e-05
6 *111:10 *115:10 5.15848e-05
7 *111:10 *125:114 4.9346e-05
*RES
1 *872:X *111:10 42.3086 
2 *111:10 *876:A 38 
*END

*D_NET *112 0.00594259
*CONN
*I *876:B I *D sky130_fd_sc_hd__or4b_2
*I *873:X O *D sky130_fd_sc_hd__or4b_2
*CAP
1 *876:B 0
2 *873:X 0.00113053
3 *112:16 0.000666081
4 *112:8 0.00179661
5 *112:8 *873:A 5.67058e-05
6 *112:8 *887:A 0.000213869
7 *112:8 *887:B 4.95081e-05
8 *112:8 *899:A1 5.67058e-05
9 *112:8 *899:B1 2.4754e-05
10 *112:8 *899:C1 5.50049e-05
11 *112:8 *123:85 2.4754e-05
12 *112:8 *134:33 9.24795e-06
13 *112:16 *921:CLK 2.3191e-05
14 *112:16 *114:14 9.91798e-05
15 *112:16 *115:10 4.94237e-05
16 *112:16 *132:64 0
17 *112:16 *147:10 0.000192087
18 *112:16 *147:12 0.000167452
19 *112:16 *147:16 0.000411299
20 *901:A2 *112:16 0.000173385
21 *902:D *112:8 0.000270682
22 *24:10 *112:16 0.000167443
23 *47:10 *112:8 1.03836e-05
24 *51:60 *112:16 0
25 *55:10 *112:8 5.72217e-05
26 *56:8 *112:16 0.000138505
27 *57:8 *112:16 8.62876e-05
28 *106:12 *112:16 1.22803e-05
*RES
1 *873:X *112:8 45.0814 
2 *112:8 *112:16 47.5864 
3 *112:16 *876:B 23 
*END

*D_NET *113 0.00422105
*CONN
*I *876:C I *D sky130_fd_sc_hd__or4b_2
*I *874:X O *D sky130_fd_sc_hd__or4_2
*CAP
1 *876:C 0
2 *874:X 0
3 *113:10 0.00117645
4 *113:6 0.00117645
5 *113:10 *819:A2 0.000104133
6 *113:10 *821:C1 8.62783e-05
7 *113:10 *872:D 0
8 *113:10 *114:14 1.83667e-05
9 *113:10 *115:10 0
10 *113:10 *120:51 0
11 *113:10 *120:55 0.000321696
12 *113:10 *120:57 0.000234382
13 *113:10 *124:27 0.000113244
14 *113:10 *125:48 0.000313694
15 *113:10 *125:50 3.83778e-05
16 *113:10 *125:92 4.60997e-05
17 *113:10 *125:114 0.000462622
18 *113:10 *145:89 1.56386e-05
19 *62:12 *113:10 0
20 *65:10 *113:10 7.64972e-05
21 *111:10 *113:10 3.71198e-05
*RES
1 *874:X *113:6 38 
2 *113:6 *113:10 45.4293 
3 *113:10 *876:C 23 
*END

*D_NET *114 0.00244578
*CONN
*I *876:D_N I *D sky130_fd_sc_hd__or4b_2
*I *875:X O *D sky130_fd_sc_hd__and4_2
*CAP
1 *876:D_N 0
2 *875:X 0
3 *114:14 0.000677554
4 *114:6 0.000677554
5 *114:14 *872:D 0
6 *114:14 *921:CLK 0.000119467
7 *114:14 *115:10 0
8 *114:14 *132:64 0.000431843
9 *114:14 *135:21 0
10 *114:14 *135:29 0.000384796
11 *56:8 *114:14 0
12 *111:10 *114:14 3.70187e-05
13 *112:16 *114:14 9.91798e-05
14 *113:10 *114:14 1.83667e-05
*RES
1 *875:X *114:6 38 
2 *114:6 *114:14 31.5507 
3 *114:14 *876:D_N 23 
*END

*D_NET *115 0.00599919
*CONN
*I *877:B I *D sky130_fd_sc_hd__nor2_2
*I *834:A3 I *D sky130_fd_sc_hd__o31a_2
*I *878:A2 I *D sky130_fd_sc_hd__o211a_2
*I *829:C I *D sky130_fd_sc_hd__nor4_2
*I *876:X O *D sky130_fd_sc_hd__or4b_2
*CAP
1 *877:B 0
2 *834:A3 0
3 *878:A2 0
4 *829:C 3.11633e-05
5 *876:X 0.000217644
6 *115:47 7.76734e-05
7 *115:41 0.000264074
8 *115:33 0.00092966
9 *115:14 0.00134383
10 *115:10 0.000787055
11 *115:10 *921:CLK 5.50106e-05
12 *115:47 *148:45 0.000187911
13 *829:A *115:33 8.06804e-06
14 *878:B1 *115:41 0
15 *878:B1 *115:47 0.000190133
16 *4:18 *115:33 0.000240091
17 *82:95 *115:41 9.41704e-05
18 *99:10 *829:C 4.46775e-05
19 *99:10 *115:14 0.000460458
20 *99:10 *115:33 1.79651e-05
21 *100:85 *829:C 0
22 *100:85 *115:33 0.000712551
23 *100:85 *115:41 1.14452e-05
24 *109:25 *115:33 0
25 *109:35 *115:41 0.0002246
26 *111:10 *115:10 5.15848e-05
27 *112:16 *115:10 4.94237e-05
28 *113:10 *115:10 0
29 *114:14 *115:10 0
*RES
1 *876:X *115:10 41.9357 
2 *115:10 *115:14 25.6264 
3 *115:14 *829:C 23.8493 
4 *115:14 *115:33 29.6036 
5 *115:33 *115:41 18.9979 
6 *115:41 *115:47 32.61 
7 *115:47 *878:A2 23 
8 *115:41 *834:A3 23 
9 *115:33 *877:B 38 
*END

*D_NET *116 0.0164964
*CONN
*I *826:C I *D sky130_fd_sc_hd__and3_2
*I *887:A I *D sky130_fd_sc_hd__nor2_2
*I *899:C1 I *D sky130_fd_sc_hd__a211o_2
*I *822:B I *D sky130_fd_sc_hd__xnor2_2
*I *825:A3 I *D sky130_fd_sc_hd__a31o_2
*I *880:A1 I *D sky130_fd_sc_hd__a211o_2
*I *889:B1 I *D sky130_fd_sc_hd__a311o_2
*I *824:B I *D sky130_fd_sc_hd__nand2_2
*I *857:A3 I *D sky130_fd_sc_hd__a32o_2
*I *881:B I *D sky130_fd_sc_hd__nand2_2
*I *877:Y O *D sky130_fd_sc_hd__nor2_2
*CAP
1 *826:C 0
2 *887:A 4.55936e-05
3 *899:C1 1.50079e-05
4 *822:B 0.000321402
5 *825:A3 0
6 *880:A1 0
7 *889:B1 0
8 *824:B 0
9 *857:A3 0.000180481
10 *881:B 0
11 *877:Y 0.000434241
12 *116:159 0.000321402
13 *116:132 0.00063021
14 *116:128 0.00129076
15 *116:115 0.000375073
16 *116:100 0.000506876
17 *116:94 0.00118127
18 *116:80 0.000903497
19 *116:65 0.000601628
20 *116:50 0.00072982
21 *116:37 0.000565553
22 *116:33 0.00139649
23 *116:20 0.000236114
24 *116:18 0.000269503
25 *116:10 0.000375426
26 *857:A3 *148:20 0.000141052
27 *857:A3 *149:10 0
28 *887:A *887:B 0.000129522
29 *887:A *899:B1 9.67842e-05
30 *899:C1 *899:B1 5.50049e-05
31 *116:18 *864:A 3.70094e-05
32 *116:33 *119:12 4.94485e-05
33 *116:33 *121:16 1.21972e-05
34 *116:33 *121:42 0.000101699
35 *116:37 *121:16 0.000191389
36 *116:50 *121:16 8.68081e-05
37 *116:50 *149:10 0
38 *116:65 *889:A1 1.14154e-05
39 *116:65 *889:A2 5.90675e-06
40 *116:65 *889:C1 0.000208469
41 *116:65 *121:16 0.000208081
42 *116:65 *130:22 9.91798e-05
43 *116:80 *910:CLK 0.000139647
44 *116:80 *117:14 0
45 *116:80 *118:8 4.344e-05
46 *116:80 *121:8 0.000194309
47 *116:80 *148:45 0
48 *116:94 *121:46 5.47808e-05
49 *116:100 *120:30 5.02846e-05
50 *116:115 *825:A1 6.17437e-06
51 *116:115 *120:30 0
52 *116:115 *139:10 2.35118e-06
53 *116:115 *139:21 0.000118422
54 *116:115 *139:66 4.99753e-06
55 *116:115 *140:33 3.70094e-05
56 *116:128 *870:A_N 0.000114125
57 *116:128 *930:CLK 4.73314e-05
58 *116:128 *121:42 9.74936e-05
59 *116:132 *828:A 0.000141879
60 *116:132 *831:A1 0.000142808
61 *116:132 *899:A1 2.76611e-06
62 *116:132 *121:94 0.000564848
63 *116:132 *143:65 0
64 *116:159 *826:B 0.000117244
65 *116:159 *121:50 0.000222123
66 *881:A *116:33 5.19838e-05
67 *930:D *116:128 3.09254e-05
68 *939:D *116:37 5.50106e-05
69 *4:18 *857:A3 8.8387e-05
70 *4:18 *116:18 6.94251e-05
71 *4:18 *116:128 0
72 *16:10 *116:80 7.25906e-05
73 *74:10 *116:159 2.05042e-05
74 *76:8 *116:115 2.1199e-05
75 *78:10 *116:132 2.3529e-05
76 *82:106 *116:115 0
77 *97:10 *857:A3 0.000246757
78 *100:38 *116:80 0.000164171
79 *100:55 *116:80 0
80 *100:69 *116:10 5.50049e-05
81 *100:85 *116:10 0.000111852
82 *103:21 *116:80 4.07715e-05
83 *105:14 *116:80 0
84 *105:25 *116:10 4.08537e-05
85 *105:25 *116:18 9.64943e-05
86 *109:8 *116:33 1.14154e-05
87 *109:25 *116:10 6.7177e-06
88 *109:25 *116:18 0.000244526
89 *109:35 *116:94 0.000228903
90 *109:35 *116:100 0
91 *110:46 *116:100 0.000195248
92 *110:46 *116:115 3.31127e-05
93 *110:46 *116:128 0.000401825
94 *112:8 *887:A 0.000213869
95 *112:8 *899:C1 5.50049e-05
*RES
1 *877:Y *116:10 40.175 
2 *116:10 *116:18 35.7171 
3 *116:18 *116:20 15 
4 *116:20 *881:B 23 
5 *116:20 *116:33 5.57214 
6 *116:33 *116:37 20.8621 
7 *116:37 *857:A3 42.8886 
8 *116:37 *116:50 2.61 
9 *116:50 *824:B 38 
10 *116:50 *116:65 28.6093 
11 *116:65 *889:B1 23 
12 *116:33 *116:80 46.7786 
13 *116:80 *880:A1 23 
14 *877:Y *116:94 44.3386 
15 *116:94 *116:100 18.2314 
16 *116:100 *825:A3 23 
17 *116:100 *116:115 37.975 
18 *116:115 *822:B 23 
19 *116:94 *116:128 41.7657 
20 *116:128 *116:132 29.935 
21 *116:132 *899:C1 23.6214 
22 *116:132 *887:A 25.5271 
23 *822:B *116:159 44.4629 
24 *116:159 *826:C 38 
*END

*D_NET *117 0.000834202
*CONN
*I *880:B1 I *D sky130_fd_sc_hd__a211o_2
*I *878:X O *D sky130_fd_sc_hd__o211a_2
*CAP
1 *880:B1 0
2 *878:X 0.000341489
3 *117:14 0.000341489
4 *117:14 *910:CLK 0
5 *117:14 *148:45 0.000147861
6 *117:14 *148:47 3.36312e-06
7 *116:80 *117:14 0
*RES
1 *878:X *117:14 44.815 
2 *117:14 *880:B1 38 
*END

*D_NET *118 0.00116464
*CONN
*I *880:A2 I *D sky130_fd_sc_hd__a211o_2
*I *879:X O *D sky130_fd_sc_hd__or2_2
*CAP
1 *880:A2 0
2 *879:X 0.0004038
3 *118:8 0.0004038
4 *118:8 *836:A1 0.000145163
5 *118:8 *879:A 4.33627e-05
6 *118:8 *880:C1 0.000100061
7 *82:95 *118:8 2.50118e-05
8 *116:80 *118:8 4.344e-05
*RES
1 *879:X *118:8 30.3121 
2 *118:8 *880:A2 23 
*END

*D_NET *119 0.000711798
*CONN
*I *833:A I *D sky130_fd_sc_hd__and3_2
*I *882:C1 I *D sky130_fd_sc_hd__o211a_2
*I *881:Y O *D sky130_fd_sc_hd__nand2_2
*CAP
1 *833:A 0
2 *882:C1 7.27155e-05
3 *881:Y 0.000167556
4 *119:14 7.27155e-05
5 *119:12 0.000167556
6 *110:20 *882:C1 0.000181805
7 *116:33 *119:12 4.94485e-05
*RES
1 *881:Y *119:12 40.6721 
2 *119:12 *119:14 15 
3 *119:14 *882:C1 25.0714 
4 *119:14 *833:A 23 
*END

*D_NET *120 0.0268787
*CONN
*I *893:B I *D sky130_fd_sc_hd__and3b_2
*I *894:B1 I *D sky130_fd_sc_hd__o21ai_2
*I *885:B1 I *D sky130_fd_sc_hd__o21ai_2
*I *833:B I *D sky130_fd_sc_hd__and3_2
*I *807:B I *D sky130_fd_sc_hd__and3b_2
*I *804:B I *D sky130_fd_sc_hd__and3b_2
*I *903:B I *D sky130_fd_sc_hd__and3b_2
*I *818:A I *D sky130_fd_sc_hd__and3_2
*I *812:B I *D sky130_fd_sc_hd__and3b_2
*I *821:C1 I *D sky130_fd_sc_hd__o211a_2
*I *827:B I *D sky130_fd_sc_hd__and3b_2
*I *883:Y O *D sky130_fd_sc_hd__nor2_2
*CAP
1 *893:B 0.000336581
2 *894:B1 0.000165331
3 *885:B1 0.00061291
4 *833:B 0
5 *807:B 7.94453e-05
6 *804:B 0
7 *903:B 0
8 *818:A 4.09526e-05
9 *812:B 0.000286624
10 *821:C1 0.000484387
11 *827:B 0
12 *883:Y 0.000900757
13 *120:163 0.000697911
14 *120:150 0.00120411
15 *120:141 0.0013027
16 *120:114 0.000718568
17 *120:102 0.00115868
18 *120:96 0.000777504
19 *120:76 0.000628164
20 *120:57 0.00092311
21 *120:55 0.000234298
22 *120:51 0.000795384
23 *120:43 0.0019655
24 *120:30 0.00244214
25 *120:18 0.00348494
26 *120:14 0.0020444
27 *812:B *874:C 0.000180224
28 *821:C1 *819:A2 3.81658e-05
29 *821:C1 *129:27 0
30 *893:B *873:C 6.36284e-05
31 *893:B *123:85 0.000116164
32 *894:B1 *131:36 0.000171906
33 *894:B1 *132:93 0.000406625
34 *120:14 *148:98 4.49122e-05
35 *120:14 *148:108 5.56356e-05
36 *120:43 *826:A 1.79293e-05
37 *120:43 *826:B 5.3304e-05
38 *120:51 *922:CLK 2.23467e-05
39 *120:51 *923:CLK 3.21898e-05
40 *120:51 *145:89 0.000136578
41 *120:51 *145:91 1.60949e-05
42 *120:55 *145:61 9.47722e-05
43 *120:55 *145:89 1.16455e-05
44 *120:57 *927:CLK 1.22803e-05
45 *120:57 *145:61 8.92841e-05
46 *120:102 *124:49 0
47 *120:114 *803:C 1.22906e-05
48 *120:114 *872:D 3.49587e-05
49 *120:114 *124:63 0.000141954
50 *120:114 *137:44 6.48049e-05
51 *120:141 *146:68 4.9808e-05
52 *120:150 *146:8 0
53 *120:150 *146:12 0
54 *120:150 *146:68 0.000182863
55 *120:150 *146:97 0
56 *120:163 *132:93 1.00765e-05
57 *120:163 *146:97 0
58 *812:A_N *812:B 3.17634e-05
59 *812:C *812:B 1.02949e-05
60 *816:A3 *120:51 5.45644e-05
61 *827:C *120:30 3.08287e-05
62 *893:A_N *893:B 7.53303e-06
63 *893:A_N *894:B1 1.22412e-05
64 *893:A_N *120:163 7.49001e-05
65 *903:A_N *120:114 0.000259176
66 *903:C *120:114 3.7122e-06
67 *20:10 *893:B 5.3304e-05
68 *27:8 *120:102 4.6318e-06
69 *27:8 *120:114 0
70 *29:10 *120:51 0.000108129
71 *35:10 *120:30 9.67842e-05
72 *35:10 *120:43 0.000183733
73 *51:29 *894:B1 0.000246129
74 *52:10 *894:B1 0.000143655
75 *57:28 *120:114 2.47015e-05
76 *61:8 *120:102 0
77 *62:8 *120:102 0
78 *62:8 *120:114 0.000301419
79 *62:12 *120:51 0.000103752
80 *62:12 *120:102 0
81 *64:10 *120:102 0.000277701
82 *64:12 *120:102 6.26356e-05
83 *64:34 *821:C1 0.000138718
84 *64:34 *120:57 3.70187e-05
85 *64:43 *120:76 8.71791e-05
86 *64:53 *120:76 0.000103647
87 *66:8 *120:76 8.62876e-05
88 *68:32 *818:A 5.3304e-05
89 *70:10 *120:51 1.61361e-05
90 *70:10 *120:55 0.000115526
91 *76:8 *120:30 2.79004e-05
92 *77:8 *120:43 3.75094e-05
93 *104:43 *120:14 5.1986e-06
94 *107:18 *120:114 4.12336e-05
95 *109:35 *120:30 0
96 *110:46 *120:30 0
97 *113:10 *821:C1 8.62783e-05
98 *113:10 *120:51 0
99 *113:10 *120:55 0.000321696
100 *113:10 *120:57 0.000234382
101 *116:100 *120:30 5.02846e-05
102 *116:115 *120:30 0
*RES
1 *883:Y *120:14 49.1283 
2 *120:14 *120:18 10.3408 
3 *120:18 *120:30 44.024 
4 *120:30 *827:B 23 
5 *120:30 *120:43 17.0064 
6 *120:43 *120:51 42.18 
7 *120:51 *120:55 19.3707 
8 *120:55 *120:57 3.31429 
9 *120:57 *821:C1 47.1557 
10 *120:57 *120:76 35.1579 
11 *120:76 *812:B 41.9564 
12 *120:55 *818:A 38.6214 
13 *120:43 *120:96 3.00357 
14 *120:96 *120:102 40.3571 
15 *120:102 *120:114 45.2664 
16 *120:114 *903:B 23 
17 *120:102 *804:B 23 
18 *120:96 *807:B 24.0979 
19 *120:18 *120:141 18.6052 
20 *120:141 *833:B 38 
21 *120:141 *120:150 7.89214 
22 *120:150 *885:B1 48.15 
23 *120:150 *120:163 3.75964 
24 *120:163 *894:B1 45.2189 
25 *120:163 *893:B 43.075 
*END

*D_NET *121 0.0167959
*CONN
*I *887:B I *D sky130_fd_sc_hd__nor2_2
*I *899:B1 I *D sky130_fd_sc_hd__a211o_2
*I *830:A I *D sky130_fd_sc_hd__nor2_2
*I *808:B1 I *D sky130_fd_sc_hd__a31o_2
*I *814:B1 I *D sky130_fd_sc_hd__a31o_2
*I *823:A I *D sky130_fd_sc_hd__nor2_2
*I *889:C1 I *D sky130_fd_sc_hd__a311o_2
*I *859:B1 I *D sky130_fd_sc_hd__a21o_2
*I *884:Y O *D sky130_fd_sc_hd__nand2_2
*CAP
1 *887:B 6.53527e-05
2 *899:B1 7.10923e-05
3 *830:A 0
4 *808:B1 0.000225964
5 *814:B1 0.000221336
6 *823:A 0.000120374
7 *889:C1 0.000258102
8 *859:B1 0.000121239
9 *884:Y 7.6105e-05
10 *121:94 0.000902615
11 *121:83 0.000837452
12 *121:63 0.000937527
13 *121:50 0.00116143
14 *121:46 0.00117137
15 *121:42 0.00163432
16 *121:16 0.00126259
17 *121:10 0.00196831
18 *121:8 7.6105e-05
19 *808:B1 *125:48 6.67651e-05
20 *808:B1 *125:92 6.09253e-05
21 *808:B1 *125:101 3.21898e-05
22 *808:B1 *125:114 1.29944e-05
23 *814:B1 *125:48 0.000237996
24 *859:B1 *859:A1 2.93845e-05
25 *887:B *134:33 9.61128e-05
26 *889:C1 *885:A2 0
27 *889:C1 *886:B1 0
28 *889:C1 *130:18 0
29 *889:C1 *150:52 0
30 *899:B1 *134:33 0.000103637
31 *121:16 *857:A1 4.99753e-06
32 *121:16 *150:52 0
33 *121:42 *870:A_N 2.93747e-05
34 *121:46 *139:66 0.000182826
35 *121:50 *826:B 4.60263e-05
36 *121:50 *831:A1 9.20311e-06
37 *121:50 *860:A 0.000166573
38 *121:50 *143:11 0
39 *121:83 *831:A1 1.69668e-05
40 *121:83 *860:A 8.51432e-05
41 *121:94 *831:A1 4.2107e-05
42 *121:94 *860:A 6.07611e-06
43 *121:94 *899:A1 0
44 *820:D *814:B1 1.19692e-05
45 *881:A *121:42 4.96207e-05
46 *887:A *887:B 0.000129522
47 *887:A *899:B1 9.67842e-05
48 *899:C1 *899:B1 5.50049e-05
49 *939:D *121:16 1.61361e-05
50 *4:18 *121:42 0.000120394
51 *34:10 *823:A 7.61229e-06
52 *34:10 *121:63 2.193e-05
53 *35:10 *121:50 0.000114538
54 *47:10 *887:B 5.67058e-05
55 *51:60 *121:94 0
56 *62:32 *808:B1 8.36198e-05
57 *68:8 *814:B1 0.000110795
58 *74:10 *121:50 0.000350168
59 *75:8 *121:16 0.000378483
60 *77:16 *121:50 0
61 *80:8 *121:50 0.000126936
62 *80:8 *121:83 5.09988e-05
63 *97:10 *121:16 9.26098e-05
64 *103:21 *121:8 0.000165696
65 *105:14 *121:8 1.05398e-05
66 *109:8 *121:42 0.000257576
67 *110:28 *121:16 0.00013118
68 *112:8 *887:B 4.95081e-05
69 *112:8 *899:B1 2.4754e-05
70 *116:33 *121:16 1.21972e-05
71 *116:33 *121:42 0.000101699
72 *116:37 *121:16 0.000191389
73 *116:50 *121:16 8.68081e-05
74 *116:65 *889:C1 0.000208469
75 *116:65 *121:16 0.000208081
76 *116:80 *121:8 0.000194309
77 *116:94 *121:46 5.47808e-05
78 *116:128 *121:42 9.74936e-05
79 *116:132 *121:94 0.000564848
80 *116:159 *121:50 0.000222123
*RES
1 *884:Y *121:8 40.61 
2 *121:8 *121:10 15 
3 *121:10 *121:16 31.5921 
4 *121:16 *859:B1 40.0507 
5 *121:16 *889:C1 43.7793 
6 *121:10 *121:42 46.4264 
7 *121:42 *121:46 23.7207 
8 *121:46 *121:50 29.5829 
9 *121:50 *823:A 25.0714 
10 *121:50 *121:63 23.2443 
11 *121:63 *814:B1 44.4836 
12 *121:63 *808:B1 43.075 
13 *121:46 *121:83 2.25786 
14 *121:83 *830:A 38 
15 *121:83 *121:94 32.4 
16 *121:94 *899:B1 25.5479 
17 *121:94 *887:B 26.0243 
*END

*D_NET *122 0.00223169
*CONN
*I *886:B1 I *D sky130_fd_sc_hd__a21oi_2
*I *885:Y O *D sky130_fd_sc_hd__o21ai_2
*CAP
1 *886:B1 0.00043557
2 *885:Y 8.75478e-05
3 *122:8 0.000523118
4 *886:B1 *885:A2 0.000194309
5 *886:B1 *886:A2 0.000343333
6 *886:B1 *123:12 0.000267561
7 *886:B1 *146:33 0
8 *886:B1 *150:52 3.70094e-05
9 *886:B1 *150:65 0.000195248
10 *886:B1 *150:73 0
11 *122:8 *885:A1 9.84851e-05
12 *122:8 *885:A2 4.95081e-05
13 *889:C1 *886:B1 0
14 *18:8 *886:B1 0
*RES
1 *885:Y *122:8 40.0507 
2 *122:8 *886:B1 49.7657 
*END

*D_NET *123 0.00815873
*CONN
*I *892:D I *D sky130_fd_sc_hd__and4_2
*I *873:D_N I *D sky130_fd_sc_hd__or4b_2
*I *891:A3 I *D sky130_fd_sc_hd__a31o_2
*I *886:A2 I *D sky130_fd_sc_hd__a21oi_2
*I *889:A3 I *D sky130_fd_sc_hd__a311o_2
*I *888:A2 I *D sky130_fd_sc_hd__a21oi_2
*I *885:A2 I *D sky130_fd_sc_hd__o21ai_2
*I *912:Q O *D sky130_fd_sc_hd__dfxtp_2
*CAP
1 *892:D 0.000362396
2 *873:D_N 0
3 *891:A3 0
4 *886:A2 0.00041832
5 *889:A3 0
6 *888:A2 0.000140584
7 *885:A2 0.00020735
8 *912:Q 2.34823e-05
9 *123:85 0.000280583
10 *123:75 0.0013938
11 *123:60 0.000908163
12 *123:25 0.000140584
13 *123:12 0.000344787
14 *123:10 0.000683806
15 *123:6 0.000308869
16 *885:A2 *885:A1 5.67058e-05
17 *886:A2 *886:A1 9.84794e-05
18 *886:A2 *130:8 0
19 *888:A2 *888:B1 0.00018282
20 *888:A2 *889:A1 9.41704e-05
21 *888:A2 *150:69 0.000265072
22 *892:D *915:CLK 0.000140927
23 *892:D *131:25 5.54294e-05
24 *123:60 *130:12 0.000359326
25 *123:75 *891:A2 2.02872e-05
26 *123:75 *130:18 2.21614e-05
27 *123:85 *873:A 0.000140259
28 *886:B1 *885:A2 0.000194309
29 *886:B1 *886:A2 0.000343333
30 *886:B1 *123:12 0.000267561
31 *889:C1 *885:A2 0
32 *893:A_N *123:85 0.000259704
33 *893:B *123:85 0.000116164
34 *895:A2 *892:D 3.5471e-05
35 *20:10 *123:85 0
36 *48:10 *888:A2 3.17634e-05
37 *49:10 *888:A2 0.000122029
38 *50:12 *123:60 2.47702e-05
39 *50:12 *123:75 1.83446e-05
40 *50:12 *123:85 0
41 *51:8 *892:D 2.26497e-05
42 *52:10 *892:D 0
43 *112:8 *123:85 2.4754e-05
44 *122:8 *885:A2 4.95081e-05
*RES
1 *912:Q *123:6 23.4971 
2 *123:6 *123:10 17.0507 
3 *123:10 *123:12 3.66643 
4 *123:12 *885:A2 42.1843 
5 *123:12 *123:25 15 
6 *123:25 *888:A2 28.5514 
7 *123:25 *889:A3 23 
8 *123:10 *886:A2 46.845 
9 *123:6 *123:60 4.93 
10 *123:60 *891:A3 23 
11 *123:60 *123:75 25.0289 
12 *123:75 *123:85 29.6389 
13 *123:85 *873:D_N 23 
14 *123:75 *892:D 48.8411 
*END

*D_NET *124 0.0060702
*CONN
*I *872:B I *D sky130_fd_sc_hd__or4_2
*I *806:A I *D sky130_fd_sc_hd__and4_2
*I *805:A I *D sky130_fd_sc_hd__or2_2
*I *808:A2 I *D sky130_fd_sc_hd__a31o_2
*I *811:C I *D sky130_fd_sc_hd__and4_2
*I *922:Q O *D sky130_fd_sc_hd__dfxtp_2
*CAP
1 *872:B 0
2 *806:A 0.00040017
3 *805:A 0
4 *808:A2 0
5 *811:C 6.03691e-05
6 *922:Q 0.000259741
7 *124:63 0.00040017
8 *124:49 0.000586925
9 *124:36 0.000693688
10 *124:27 4.54221e-05
11 *124:14 0.000723511
12 *124:6 0.000984224
13 *811:C *929:CLK 9.91548e-05
14 *124:14 *922:CLK 1.47795e-05
15 *124:14 *929:CLK 0.000213302
16 *124:14 *125:38 7.032e-05
17 *124:14 *125:46 3.44001e-05
18 *124:27 *125:92 3.67392e-05
19 *124:27 *125:101 8.78864e-05
20 *124:27 *125:114 1.13812e-05
21 *124:63 *806:B 9.5877e-05
22 *124:63 *872:C 0.000564588
23 *809:A2 *124:14 0.000187363
24 *922:D *124:14 1.64354e-05
25 *28:10 *124:49 0
26 *29:10 *124:14 9.91548e-05
27 *63:8 *124:49 0.000129402
28 *113:10 *124:27 0.000113244
29 *120:102 *124:49 0
30 *120:114 *124:63 0.000141954
*RES
1 *922:Q *124:6 26.48 
2 *124:6 *124:14 12.5943 
3 *124:14 *811:C 24.0979 
4 *124:14 *124:27 31.5536 
5 *124:27 *808:A2 23 
6 *124:6 *124:36 16.5536 
7 *124:36 *805:A 38 
8 *124:36 *124:49 27.035 
9 *124:49 *806:A 23 
10 *806:A *124:63 31.7414 
11 *124:63 *872:B 23 
*END

*D_NET *125 0.0101136
*CONN
*I *809:A1 I *D sky130_fd_sc_hd__o21ba_2
*I *872:A I *D sky130_fd_sc_hd__or4_2
*I *808:A1 I *D sky130_fd_sc_hd__a31o_2
*I *811:B I *D sky130_fd_sc_hd__and4_2
*I *814:A1 I *D sky130_fd_sc_hd__a31o_2
*I *820:B I *D sky130_fd_sc_hd__nand4_2
*I *810:A1 I *D sky130_fd_sc_hd__a21o_2
*I *819:A2 I *D sky130_fd_sc_hd__a41o_2
*I *816:A1 I *D sky130_fd_sc_hd__a31o_2
*I *817:B I *D sky130_fd_sc_hd__nand4_2
*I *923:Q O *D sky130_fd_sc_hd__dfxtp_2
*CAP
1 *809:A1 0
2 *872:A 0
3 *808:A1 0
4 *811:B 0
5 *814:A1 0.000130037
6 *820:B 0.000279737
7 *810:A1 6.94194e-05
8 *819:A2 0.000530008
9 *816:A1 3.78867e-05
10 *817:B 0.000175346
11 *923:Q 0.000288049
12 *125:114 0.000617888
13 *125:101 0.000666446
14 *125:92 0.000115792
15 *125:65 0.000349157
16 *125:50 0.000596646
17 *125:48 0.000488707
18 *125:46 0.000682313
19 *125:38 0.00037753
20 *125:12 0.000434217
21 *125:10 0.000563518
22 *817:B *816:B1 0.000241782
23 *817:B *128:36 1.01436e-05
24 *819:A2 *819:A1 0.000226306
25 *819:A2 *874:A 3.06608e-05
26 *819:A2 *126:21 0
27 *819:A2 *129:8 0
28 *820:B *926:CLK 1.59094e-05
29 *125:38 *922:CLK 0.000217118
30 *125:46 *811:A 9.79925e-05
31 *125:46 *922:CLK 0.000141352
32 *125:46 *929:CLK 6.93533e-05
33 *805:B *125:10 0.000230726
34 *808:B1 *125:48 6.67651e-05
35 *808:B1 *125:92 6.09253e-05
36 *808:B1 *125:101 3.21898e-05
37 *808:B1 *125:114 1.29944e-05
38 *809:A2 *125:38 0.000100477
39 *809:A2 *125:46 0.000100486
40 *814:B1 *125:48 0.000237996
41 *820:C *820:B 5.90675e-06
42 *820:D *810:A1 9.84794e-05
43 *820:D *819:A2 0
44 *820:D *820:B 4.2573e-05
45 *820:D *125:48 0
46 *820:D *125:50 0
47 *821:C1 *819:A2 3.81658e-05
48 *64:12 *125:10 3.56377e-05
49 *64:14 *817:B 5.20619e-06
50 *64:14 *125:10 5.71002e-06
51 *64:14 *125:12 9.0968e-05
52 *64:16 *817:B 8.60335e-05
53 *64:26 *817:B 2.76611e-06
54 *64:26 *820:B 5.61255e-06
55 *64:43 *820:B 4.2062e-05
56 *64:53 *819:A2 0
57 *66:8 *819:A2 0
58 *68:32 *814:A1 0.000103637
59 *111:10 *125:114 4.9346e-05
60 *113:10 *819:A2 0.000104133
61 *113:10 *125:48 0.000313694
62 *113:10 *125:50 3.83778e-05
63 *113:10 *125:92 4.60997e-05
64 *113:10 *125:114 0.000462622
65 *124:14 *125:38 7.032e-05
66 *124:14 *125:46 3.44001e-05
67 *124:27 *125:92 3.67392e-05
68 *124:27 *125:101 8.78864e-05
69 *124:27 *125:114 1.13812e-05
*RES
1 *923:Q *125:10 42.785 
2 *125:10 *125:12 4.54679 
3 *125:12 *817:B 42.8161 
4 *125:12 *816:A1 38.9425 
5 *125:10 *125:38 17.5271 
6 *125:38 *125:46 20.9036 
7 *125:46 *125:48 8.59643 
8 *125:48 *125:50 1.20143 
9 *125:50 *819:A2 46.2236 
10 *125:50 *125:65 15 
11 *125:65 *810:A1 24.0979 
12 *125:65 *820:B 26.8529 
13 *125:48 *814:A1 40.0507 
14 *125:46 *125:92 1.90571 
15 *125:92 *811:B 38 
16 *125:92 *125:101 1.20143 
17 *125:101 *808:A1 38 
18 *125:101 *125:114 29.645 
19 *125:114 *872:A 23 
20 *125:38 *809:A1 23 
*END

*D_NET *126 0.00370146
*CONN
*I *811:A I *D sky130_fd_sc_hd__and4_2
*I *813:B I *D sky130_fd_sc_hd__and2_2
*I *810:B1 I *D sky130_fd_sc_hd__a21o_2
*I *874:D I *D sky130_fd_sc_hd__or4_2
*I *924:Q O *D sky130_fd_sc_hd__dfxtp_2
*CAP
1 *811:A 0.000315641
2 *813:B 0
3 *810:B1 7.0781e-05
4 *874:D 8.7274e-05
5 *924:Q 0.000153266
6 *126:32 0.000545643
7 *126:21 0.000411113
8 *126:10 0.000350869
9 *811:A *929:CLK 0.000217134
10 *874:D *874:C 9.91798e-05
11 *126:21 *874:C 5.21127e-05
12 *126:21 *127:21 5.03449e-05
13 *126:32 *813:A 0.000211594
14 *126:32 *127:21 9.6289e-05
15 *812:A_N *126:21 0
16 *812:C *874:D 2.64616e-05
17 *819:A2 *126:21 0
18 *820:D *810:B1 5.67058e-05
19 *820:D *126:32 2.95125e-05
20 *30:8 *126:10 0
21 *64:53 *810:B1 9.84851e-05
22 *64:53 *126:21 3.70094e-05
23 *64:53 *126:32 0.000141888
24 *66:8 *126:10 6.25829e-05
25 *66:8 *126:21 0.000163361
26 *67:10 *811:A 0.000145171
27 *68:8 *126:32 0.00018105
28 *125:46 *811:A 9.79925e-05
*RES
1 *924:Q *126:10 40.5271 
2 *126:10 *874:D 40.0507 
3 *126:10 *126:21 3.31429 
4 *126:21 *810:B1 39.5743 
5 *126:21 *126:32 8.24429 
6 *126:32 *813:B 38 
7 *126:32 *811:A 45.0429 
*END

*D_NET *127 0.00208354
*CONN
*I *813:A I *D sky130_fd_sc_hd__and2_2
*I *815:A1 I *D sky130_fd_sc_hd__o21ba_2
*I *874:C I *D sky130_fd_sc_hd__or4_2
*I *925:Q O *D sky130_fd_sc_hd__dfxtp_2
*CAP
1 *813:A 0.000167938
2 *815:A1 0
3 *874:C 0.0002116
4 *925:Q 0
5 *127:21 0.000248227
6 *127:6 0.00029189
7 *874:C *819:A1 3.91386e-05
8 *812:A_N *874:C 6.21225e-05
9 *812:A_N *127:21 0.000140558
10 *812:B *874:C 0.000180224
11 *812:C *874:C 2.07242e-05
12 *874:D *874:C 9.91798e-05
13 *67:10 *813:A 0.000205518
14 *67:10 *127:21 6.07611e-06
15 *126:21 *874:C 5.21127e-05
16 *126:21 *127:21 5.03449e-05
17 *126:32 *813:A 0.000211594
18 *126:32 *127:21 9.6289e-05
*RES
1 *925:Q *127:6 38 
2 *127:6 *874:C 43.5307 
3 *127:6 *127:21 3.66643 
4 *127:21 *815:A1 38 
5 *127:21 *813:A 43.7793 
*END

*D_NET *128 0.0049315
*CONN
*I *816:B1 I *D sky130_fd_sc_hd__a31o_2
*I *862:A I *D sky130_fd_sc_hd__inv_2
*I *817:A I *D sky130_fd_sc_hd__nand4_2
*I *874:B I *D sky130_fd_sc_hd__or4_2
*I *819:A1 I *D sky130_fd_sc_hd__a41o_2
*I *926:Q O *D sky130_fd_sc_hd__dfxtp_2
*CAP
1 *816:B1 0.00018286
2 *862:A 6.41345e-05
3 *817:A 0
4 *874:B 2.00578e-05
5 *819:A1 0.000118281
6 *926:Q 0.000422817
7 *128:40 0.000108521
8 *128:36 0.00036368
9 *128:18 0.000736787
10 *128:8 0.0011577
11 *819:A1 *874:A 0.000226306
12 *128:18 *874:A 9.16557e-05
13 *128:18 *927:CLK 0.000394994
14 *128:18 *129:8 7.30979e-06
15 *817:B *816:B1 0.000241782
16 *817:B *128:36 1.01436e-05
17 *819:A2 *819:A1 0.000226306
18 *874:C *819:A1 3.91386e-05
19 *32:10 *128:36 4.3407e-05
20 *64:26 *128:36 0
21 *64:34 *128:18 2.81138e-05
22 *73:10 *128:18 8.4047e-05
23 *101:10 *862:A 4.79641e-05
24 *101:10 *128:18 8.4047e-05
25 *101:10 *128:36 0.000225275
26 *101:10 *128:40 6.17437e-06
*RES
1 *926:Q *128:8 43.3857 
2 *128:8 *128:18 25.0879 
3 *128:18 *819:A1 27.205 
4 *128:18 *874:B 23.4971 
5 *128:8 *128:36 3.66643 
6 *128:36 *128:40 15.6214 
7 *128:40 *817:A 23 
8 *128:40 *862:A 24.5743 
9 *128:36 *816:B1 42.4121 
*END

*D_NET *129 0.0029907
*CONN
*I *819:B1 I *D sky130_fd_sc_hd__a41o_2
*I *820:A I *D sky130_fd_sc_hd__nand4_2
*I *874:A I *D sky130_fd_sc_hd__or4_2
*I *927:Q O *D sky130_fd_sc_hd__dfxtp_2
*CAP
1 *819:B1 0
2 *820:A 0
3 *874:A 0.000148445
4 *927:Q 0.000697822
5 *129:27 0.00021418
6 *129:21 0.000225921
7 *129:8 0.000858008
8 *874:A *927:CLK 3.48759e-05
9 *129:8 *927:CLK 2.25419e-05
10 *819:A1 *874:A 0.000226306
11 *819:A2 *874:A 3.06608e-05
12 *819:A2 *129:8 0
13 *819:A4 *874:A 3.79854e-05
14 *819:A4 *129:27 1.02561e-05
15 *821:C1 *129:27 0
16 *927:D *129:8 0.000100782
17 *64:26 *129:27 4.18201e-05
18 *64:34 *874:A 0.000143655
19 *72:10 *129:8 9.84794e-05
20 *73:10 *129:27 0
21 *128:18 *874:A 9.16557e-05
22 *128:18 *129:8 7.30979e-06
*RES
1 *927:Q *129:8 32.6943 
2 *129:8 *874:A 28.5514 
3 *129:8 *129:21 0.497143 
4 *129:21 *129:27 33.3143 
5 *129:27 *820:A 23 
6 *129:21 *819:B1 23 
*END

*D_NET *130 0.00505474
*CONN
*I *891:A2 I *D sky130_fd_sc_hd__a31o_2
*I *892:C I *D sky130_fd_sc_hd__and4_2
*I *873:C I *D sky130_fd_sc_hd__or4b_2
*I *889:A2 I *D sky130_fd_sc_hd__a311o_2
*I *888:B1 I *D sky130_fd_sc_hd__a21oi_2
*I *913:Q O *D sky130_fd_sc_hd__dfxtp_2
*CAP
1 *891:A2 4.79398e-05
2 *892:C 0.000393836
3 *873:C 0.000272736
4 *889:A2 2.14194e-05
5 *888:B1 9.23923e-05
6 *913:Q 5.91303e-05
7 *130:22 0.000424278
8 *130:18 0.000896191
9 *130:14 0.000706825
10 *130:12 0.000282083
11 *130:8 0.000293273
12 *888:B1 *889:A1 1.5769e-05
13 *892:C *892:A 0.000259883
14 *892:C *915:CLK 0.000119002
15 *892:C *131:25 5.72975e-05
16 *892:C *150:92 9.77405e-05
17 *892:C *150:98 3.54728e-05
18 *130:18 *150:98 4.2812e-06
19 *130:22 *889:A1 1.76557e-05
20 *886:A2 *130:8 0
21 *888:A2 *888:B1 0.00018282
22 *889:C1 *130:18 0
23 *893:A_N *873:C 5.79559e-05
24 *893:B *873:C 6.36284e-05
25 *893:C *873:C 1.64354e-05
26 *20:10 *873:C 7.27895e-05
27 *49:10 *888:B1 5.70419e-05
28 *116:65 *889:A2 5.90675e-06
29 *116:65 *130:22 9.91798e-05
30 *123:60 *130:12 0.000359326
31 *123:75 *891:A2 2.02872e-05
32 *123:75 *130:18 2.21614e-05
*RES
1 *913:Q *130:8 39.2014 
2 *130:8 *130:12 18.9564 
3 *130:12 *130:14 15 
4 *130:14 *130:18 19.0186 
5 *130:18 *130:22 6.35929 
6 *130:22 *888:B1 25.5271 
7 *130:22 *889:A2 23.4971 
8 *130:18 *873:C 28.8621 
9 *130:14 *892:C 45.2293 
10 *130:12 *891:A2 23.6214 
*END

*D_NET *131 0.00270541
*CONN
*I *873:B I *D sky130_fd_sc_hd__or4b_2
*I *892:B I *D sky130_fd_sc_hd__and4_2
*I *891:B1 I *D sky130_fd_sc_hd__a31o_2
*I *914:Q O *D sky130_fd_sc_hd__dfxtp_2
*CAP
1 *873:B 0
2 *892:B 0
3 *891:B1 0.000389737
4 *914:Q 0.000147407
5 *131:36 9.22651e-05
6 *131:25 0.000182198
7 *131:8 0.000664251
8 *131:6 0.000331988
9 *131:25 *915:CLK 1.64259e-05
10 *892:C *131:25 5.72975e-05
11 *892:D *131:25 5.54294e-05
12 *893:A_N *131:36 0.000191495
13 *894:B1 *131:36 0.000171906
14 *914:D *891:B1 8.15899e-06
15 *50:12 *891:B1 1.08366e-05
16 *51:8 *131:25 8.29264e-05
17 *51:8 *131:36 3.33144e-05
18 *51:29 *131:6 0.000216471
19 *51:29 *131:8 5.3304e-05
*RES
1 *914:Q *131:6 25.5271 
2 *131:6 *131:8 1.09786 
3 *131:8 *891:B1 27.93 
4 *131:8 *131:25 32.7757 
5 *131:25 *892:B 23 
6 *131:6 *131:36 32.9621 
7 *131:36 *873:B 23 
*END

*D_NET *132 0.00858862
*CONN
*I *873:A I *D sky130_fd_sc_hd__or4b_2
*I *896:B I *D sky130_fd_sc_hd__and3_2
*I *901:A1 I *D sky130_fd_sc_hd__a31o_2
*I *902:B I *D sky130_fd_sc_hd__and4_2
*I *897:A1 I *D sky130_fd_sc_hd__a21o_2
*I *895:A1 I *D sky130_fd_sc_hd__a21oi_2
*I *894:A1 I *D sky130_fd_sc_hd__o21ai_2
*I *915:Q O *D sky130_fd_sc_hd__dfxtp_2
*CAP
1 *873:A 5.16029e-05
2 *896:B 0.000309066
3 *901:A1 0
4 *902:B 0
5 *897:A1 0
6 *895:A1 0.000373556
7 *894:A1 0.000470139
8 *915:Q 5.45426e-05
9 *132:93 0.000353395
10 *132:64 0.000398272
11 *132:51 0.000532225
12 *132:47 0.00110725
13 *132:32 0.00133939
14 *132:21 0.00126787
15 *132:8 0.000442048
16 *896:B *867:B 6.03391e-05
17 *896:B *134:8 9.58714e-05
18 *132:32 *897:B1 5.70419e-05
19 *132:47 *867:A 0
20 *132:47 *897:B1 4.21281e-05
21 *132:47 *920:CLK 0
22 *132:47 *133:8 5.93381e-05
23 *132:47 *133:30 0
24 *132:51 *133:8 5.68336e-05
25 *132:51 *135:29 0
26 *132:51 *147:61 0
27 *132:64 *875:C 3.17634e-05
28 *132:64 *135:29 5.50049e-05
29 *894:B1 *132:93 0.000406625
30 *901:A2 *132:51 1.14452e-05
31 *901:A2 *132:64 0
32 *21:10 *895:A1 3.71369e-05
33 *47:29 *896:B 8.47188e-05
34 *51:29 *132:93 1.76557e-05
35 *51:50 *132:47 0
36 *52:10 *894:A1 0
37 *52:10 *132:21 0
38 *52:10 *132:93 2.4754e-05
39 *54:10 *132:32 4.05309e-05
40 *55:10 *894:A1 0
41 *55:10 *132:21 0
42 *56:8 *132:64 0
43 *106:12 *132:51 0.000169184
44 *112:8 *873:A 5.67058e-05
45 *112:16 *132:64 0
46 *114:14 *132:64 0.000431843
47 *120:163 *132:93 1.00765e-05
48 *123:85 *873:A 0.000140259
*RES
1 *915:Q *132:8 38.6214 
2 *132:8 *894:A1 40.2579 
3 *132:8 *132:21 19.3707 
4 *132:21 *895:A1 29.3593 
5 *132:21 *132:32 12.0557 
6 *132:32 *897:A1 23 
7 *132:32 *132:47 27.035 
8 *132:47 *132:51 18.3143 
9 *132:51 *902:B 23 
10 *132:51 *132:64 37.3536 
11 *132:64 *901:A1 23 
12 *132:47 *896:B 43.5514 
13 *894:A1 *132:93 45.395 
14 *132:93 *873:A 39.5743 
*END

*D_NET *133 0.00342012
*CONN
*I *897:B1 I *D sky130_fd_sc_hd__a21o_2
*I *896:A I *D sky130_fd_sc_hd__and3_2
*I *867:B I *D sky130_fd_sc_hd__and2_2
*I *875:D I *D sky130_fd_sc_hd__and4_2
*I *916:Q O *D sky130_fd_sc_hd__dfxtp_2
*CAP
1 *897:B1 0.000204872
2 *896:A 0
3 *867:B 4.6223e-05
4 *875:D 4.71053e-05
5 *916:Q 0.000649906
6 *133:30 0.000168622
7 *133:26 0.000760676
8 *133:8 0.000263607
9 *867:B *134:8 6.17437e-06
10 *867:B *147:78 2.4754e-05
11 *875:D *875:C 0.000140259
12 *875:D *135:29 9.84794e-05
13 *133:8 *920:CLK 2.26489e-05
14 *133:8 *147:61 7.73214e-05
15 *133:8 *147:72 1.4471e-05
16 *896:B *867:B 6.03391e-05
17 *897:A2 *897:B1 0.000130433
18 *897:A2 *133:30 0.000243578
19 *47:29 *867:B 0.00010018
20 *47:29 *133:26 3.82058e-06
21 *47:29 *133:30 0.000110913
22 *51:39 *867:B 2.02517e-05
23 *51:50 *133:30 1.01436e-05
24 *132:32 *897:B1 5.70419e-05
25 *132:47 *897:B1 4.21281e-05
26 *132:47 *133:8 5.93381e-05
27 *132:47 *133:30 0
28 *132:51 *133:8 5.68336e-05
*RES
1 *916:Q *133:8 43.075 
2 *133:8 *875:D 39.5743 
3 *916:Q *133:26 43.3857 
4 *133:26 *133:30 18.3143 
5 *133:30 *867:B 25.0714 
6 *133:30 *896:A 23 
7 *133:26 *897:B1 42.4536 
*END

*D_NET *134 0.00455882
*CONN
*I *867:A I *D sky130_fd_sc_hd__and2_2
*I *900:A1 I *D sky130_fd_sc_hd__o21ba_2
*I *899:A1 I *D sky130_fd_sc_hd__a211o_2
*I *875:C I *D sky130_fd_sc_hd__and4_2
*I *917:Q O *D sky130_fd_sc_hd__dfxtp_2
*CAP
1 *867:A 3.48971e-05
2 *900:A1 0.000310284
3 *899:A1 7.04879e-05
4 *875:C 0.000393229
5 *917:Q 0.000148958
6 *134:33 0.000797181
7 *134:12 0.000927101
8 *134:8 0.000301318
9 *875:C *135:29 2.4754e-05
10 *900:A1 *147:93 0
11 *134:8 *147:78 5.61255e-06
12 *867:B *134:8 6.17437e-06
13 *875:D *875:C 0.000140259
14 *887:B *134:33 9.61128e-05
15 *896:B *134:8 9.58714e-05
16 *899:A2 *899:A1 5.03449e-05
17 *899:A2 *900:A1 7.55491e-05
18 *899:B1 *134:33 0.000103637
19 *900:A2 *900:A1 5.67058e-05
20 *902:D *875:C 0.000230604
21 *902:D *134:33 2.80512e-05
22 *47:10 *899:A1 0
23 *47:10 *900:A1 0
24 *47:10 *134:33 9.67842e-05
25 *47:47 *875:C 2.33476e-05
26 *51:39 *134:8 0.000228001
27 *51:48 *134:8 1.40958e-05
28 *51:50 *867:A 2.03555e-05
29 *51:50 *875:C 1.78655e-05
30 *51:50 *134:12 9.63642e-05
31 *53:25 *900:A1 6.4393e-05
32 *55:10 *900:A1 0
33 *106:12 *875:C 0
34 *112:8 *899:A1 5.67058e-05
35 *112:8 *134:33 9.24795e-06
36 *116:132 *899:A1 2.76611e-06
37 *121:94 *899:A1 0
38 *132:47 *867:A 0
39 *132:64 *875:C 3.17634e-05
*RES
1 *917:Q *134:8 41.48 
2 *134:8 *134:12 1.99893 
3 *134:12 *875:C 46.3375 
4 *134:12 *134:33 36.3386 
5 *134:33 *899:A1 39.8229 
6 *134:33 *900:A1 43.8207 
7 *134:8 *867:A 39.2636 
*END

*D_NET *135 0.00298538
*CONN
*I *901:B1 I *D sky130_fd_sc_hd__a31o_2
*I *902:A I *D sky130_fd_sc_hd__and4_2
*I *872:D I *D sky130_fd_sc_hd__or4_2
*I *918:Q O *D sky130_fd_sc_hd__dfxtp_2
*CAP
1 *901:B1 0
2 *902:A 0
3 *872:D 0.000482494
4 *918:Q 0
5 *135:29 0.000243289
6 *135:21 0.000547765
7 *135:6 0.00078697
8 *872:D *137:44 0
9 *135:21 *137:44 0
10 *135:29 *147:61 0.000138718
11 *875:C *135:29 2.4754e-05
12 *875:D *135:29 9.84794e-05
13 *62:8 *872:D 0.000182076
14 *62:12 *872:D 6.07611e-06
15 *113:10 *872:D 0
16 *114:14 *872:D 0
17 *114:14 *135:21 0
18 *114:14 *135:29 0.000384796
19 *120:114 *872:D 3.49587e-05
20 *132:51 *135:29 0
21 *132:64 *135:29 5.50049e-05
*RES
1 *918:Q *135:6 38 
2 *135:6 *872:D 47.6529 
3 *135:6 *135:21 20.3857 
4 *135:21 *135:29 37.0014 
5 *135:29 *902:A 23 
6 *135:21 *901:B1 23 
*END

*D_NET *136 0.00564057
*CONN
*I *905:A I *D sky130_fd_sc_hd__nand2_2
*I *904:A I *D sky130_fd_sc_hd__or2_2
*I *868:B I *D sky130_fd_sc_hd__nand2_2
*I *803:C I *D sky130_fd_sc_hd__and4_2
*I *875:B I *D sky130_fd_sc_hd__and4_2
*I *919:Q O *D sky130_fd_sc_hd__dfxtp_2
*CAP
1 *905:A 0
2 *904:A 3.09382e-05
3 *868:B 0.000335005
4 *803:C 3.22256e-05
5 *875:B 0.000302355
6 *919:Q 0.000392231
7 *136:33 0.000561757
8 *136:31 0.000308551
9 *136:20 0.000513886
10 *136:14 0.000144574
11 *136:10 0.000408359
12 *803:C *137:44 6.48142e-05
13 *868:B *803:A 1.59094e-05
14 *868:B *137:44 2.64616e-05
15 *868:B *137:64 8.80009e-05
16 *875:B *875:A 0.000269775
17 *875:B *137:29 2.03764e-06
18 *136:10 *137:29 8.4047e-05
19 *136:14 *137:29 1.94693e-05
20 *136:20 *137:29 3.39573e-05
21 *136:31 *137:44 0.000124102
22 *136:33 *137:44 0.000620359
23 *905:B *136:14 2.4754e-05
24 *905:B *136:20 0.000207182
25 *905:B *136:31 3.71198e-05
26 *26:8 *136:10 3.46181e-05
27 *57:14 *904:A 2.93845e-05
28 *57:20 *136:31 2.76611e-06
29 *57:20 *136:33 0.000201671
30 *59:8 *136:20 0.000123501
31 *102:27 *136:10 0
32 *102:27 *136:20 1.37039e-05
33 *107:10 *868:B 0.00014196
34 *107:18 *803:C 8.94487e-05
35 *107:18 *868:B 0.000306338
36 *107:18 *136:33 3.70187e-05
37 *120:114 *803:C 1.22906e-05
*RES
1 *919:Q *136:10 43.7379 
2 *136:10 *136:14 15.6214 
3 *136:14 *136:20 4.47429 
4 *136:20 *875:B 27.4329 
5 *136:20 *136:31 16.9057 
6 *136:31 *136:33 8.24429 
7 *136:33 *803:C 39.2014 
8 *136:33 *868:B 45.6643 
9 *136:31 *904:A 38.6214 
10 *136:14 *905:A 23 
*END

*D_NET *137 0.00615275
*CONN
*I *868:A I *D sky130_fd_sc_hd__nand2_2
*I *803:B I *D sky130_fd_sc_hd__and4_2
*I *875:A I *D sky130_fd_sc_hd__and4_2
*I *863:A I *D sky130_fd_sc_hd__inv_2
*I *920:Q O *D sky130_fd_sc_hd__dfxtp_2
*CAP
1 *868:A 0
2 *803:B 0.000391899
3 *875:A 0.000107839
4 *863:A 0.000119391
5 *920:Q 8.03694e-05
6 *137:64 0.000391899
7 *137:44 0.000509483
8 *137:29 0.00143504
9 *137:12 0.00111092
10 *137:8 0.000254173
11 *137:64 *803:A 5.3304e-05
12 *803:C *137:44 6.48142e-05
13 *868:B *137:44 2.64616e-05
14 *868:B *137:64 8.80009e-05
15 *872:D *137:44 0
16 *875:B *875:A 0.000269775
17 *875:B *137:29 2.03764e-06
18 *903:A_N *137:44 1.32314e-05
19 *905:B *137:29 1.17001e-05
20 *26:8 *137:29 0
21 *59:8 *137:29 0.000144186
22 *102:27 *137:29 0
23 *107:10 *137:64 0.000131485
24 *120:114 *137:44 6.48049e-05
25 *135:21 *137:44 0
26 *136:10 *137:29 8.4047e-05
27 *136:14 *137:29 1.94693e-05
28 *136:20 *137:29 3.39573e-05
29 *136:31 *137:44 0.000124102
30 *136:33 *137:44 0.000620359
*RES
1 *920:Q *137:8 40.2579 
2 *137:8 *137:12 18.0036 
3 *137:12 *863:A 25.0507 
4 *137:12 *137:29 44.355 
5 *137:29 *875:A 26.0036 
6 *137:29 *137:44 42.1593 
7 *137:44 *803:B 23 
8 *803:B *137:64 29.67 
9 *137:64 *868:A 23 
*END

*D_NET *138 0.00400317
*CONN
*I *909:B1 I *D sky130_fd_sc_hd__a21o_2
*I *803:A I *D sky130_fd_sc_hd__and4_2
*I *806:B I *D sky130_fd_sc_hd__and4_2
*I *872:C I *D sky130_fd_sc_hd__or4_2
*I *921:Q O *D sky130_fd_sc_hd__dfxtp_2
*CAP
1 *909:B1 0.000162485
2 *803:A 3.00574e-05
3 *806:B 6.40863e-05
4 *872:C 0.00022486
5 *921:Q 0.000293348
6 *138:38 0.000458915
7 *138:14 0.000377864
8 *138:8 0.000648639
9 *138:38 *921:CLK 0
10 *804:C *872:C 9.05898e-05
11 *806:C *138:14 0.000136486
12 *868:B *803:A 1.59094e-05
13 *909:A1 *138:14 0.00010803
14 *921:D *138:38 2.49645e-05
15 *57:20 *909:B1 6.79176e-05
16 *57:20 *138:38 4.45839e-05
17 *57:56 *872:C 2.93845e-05
18 *57:56 *138:14 0.000246748
19 *61:8 *909:B1 4.30948e-05
20 *61:8 *138:38 0.000104515
21 *64:10 *872:C 5.36192e-05
22 *107:10 *909:B1 2.46922e-05
23 *107:18 *138:38 1.73279e-05
24 *108:8 *138:8 1.05235e-05
25 *108:8 *138:38 1.07558e-05
26 *124:63 *806:B 9.5877e-05
27 *124:63 *872:C 0.000564588
28 *137:64 *803:A 5.3304e-05
*RES
1 *921:Q *138:8 27.93 
2 *138:8 *138:14 33.3143 
3 *138:14 *872:C 29.815 
4 *138:14 *806:B 24.595 
5 *138:8 *138:38 19.1014 
6 *138:38 *803:A 38.6214 
7 *138:38 *909:B1 41.2729 
*END

*D_NET *139 0.0067819
*CONN
*I *870:C I *D sky130_fd_sc_hd__and4bb_2
*I *860:A I *D sky130_fd_sc_hd__inv_2
*I *826:B I *D sky130_fd_sc_hd__and3_2
*I *825:A1 I *D sky130_fd_sc_hd__a31o_2
*I *822:A I *D sky130_fd_sc_hd__xnor2_2
*I *928:Q O *D sky130_fd_sc_hd__dfxtp_2
*CAP
1 *870:C 0
2 *860:A 0.000283988
3 *826:B 0.000188627
4 *825:A1 0.000111183
5 *822:A 5.145e-05
6 *928:Q 0.000403827
7 *139:66 0.000416004
8 *139:34 0.000894378
9 *139:23 0.000532946
10 *139:21 0.000570673
11 *139:10 0.000609946
12 *825:A1 *140:27 4.17736e-05
13 *825:A1 *140:33 5.67058e-05
14 *139:10 *140:10 0.000140875
15 *139:10 *143:11 9.22354e-05
16 *139:10 *143:25 2.79603e-05
17 *139:21 *140:10 0.000249821
18 *139:21 *140:27 0.000127263
19 *139:34 *140:27 5.3304e-05
20 *139:66 *140:27 3.47781e-05
21 *139:66 *140:33 0.000349866
22 *139:66 *143:11 3.57136e-05
23 *831:B1 *139:34 6.70017e-05
24 *36:8 *139:66 0.000222104
25 *99:10 *860:A 5.50106e-05
26 *110:46 *139:66 0.000375331
27 *116:115 *825:A1 6.17437e-06
28 *116:115 *139:10 2.35118e-06
29 *116:115 *139:21 0.000118422
30 *116:115 *139:66 4.99753e-06
31 *116:159 *826:B 0.000117244
32 *120:43 *826:B 5.3304e-05
33 *121:46 *139:66 0.000182826
34 *121:50 *826:B 4.60263e-05
35 *121:50 *860:A 0.000166573
36 *121:83 *860:A 8.51432e-05
37 *121:94 *860:A 6.07611e-06
*RES
1 *928:Q *139:10 46.6379 
2 *139:10 *822:A 38.6214 
3 *139:10 *139:21 5.075 
4 *139:21 *139:23 15 
5 *139:23 *825:A1 24.5743 
6 *139:23 *139:34 20.3857 
7 *139:34 *826:B 41.5836 
8 *139:34 *860:A 45.105 
9 *139:21 *139:66 41.8486 
10 *139:66 *870:C 38 
*END

*D_NET *140 0.00546948
*CONN
*I *825:B1 I *D sky130_fd_sc_hd__a31o_2
*I *828:B I *D sky130_fd_sc_hd__nand2_2
*I *871:B I *D sky130_fd_sc_hd__or4b_2
*I *870:B_N I *D sky130_fd_sc_hd__and4bb_2
*I *826:A I *D sky130_fd_sc_hd__and3_2
*I *929:Q O *D sky130_fd_sc_hd__dfxtp_2
*CAP
1 *825:B1 0
2 *828:B 0.000282337
3 *871:B 0
4 *870:B_N 0
5 *826:A 0.000128191
6 *929:Q 0.000199974
7 *140:46 0.000505298
8 *140:33 0.000567753
9 *140:27 0.000488568
10 *140:10 0.000471942
11 *140:10 *143:11 0.000179639
12 *140:27 *143:11 7.56417e-05
13 *140:46 *832:A 9.48318e-05
14 *140:46 *870:D 8.62783e-05
15 *140:46 *142:19 6.16531e-05
16 *825:A1 *140:27 4.17736e-05
17 *825:A1 *140:33 5.67058e-05
18 *827:C *826:A 4.92407e-05
19 *35:10 *826:A 0.000145784
20 *36:8 *140:33 1.84329e-05
21 *77:8 *826:A 3.61695e-05
22 *77:16 *826:A 0.00010018
23 *78:10 *828:B 0.000139357
24 *79:8 *140:33 0.000291935
25 *79:8 *140:46 0.000277705
26 *99:29 *828:B 2.50922e-05
27 *99:29 *140:46 1.05235e-05
28 *110:8 *140:46 1.05235e-05
29 *110:46 *140:33 9.68422e-05
30 *110:46 *140:46 1.62615e-05
31 *116:115 *140:33 3.70094e-05
32 *120:43 *826:A 1.79293e-05
33 *139:10 *140:10 0.000140875
34 *139:21 *140:10 0.000249821
35 *139:21 *140:27 0.000127263
36 *139:34 *140:27 5.3304e-05
37 *139:66 *140:27 3.47781e-05
38 *139:66 *140:33 0.000349866
*RES
1 *929:Q *140:10 43.6964 
2 *140:10 *826:A 41.9771 
3 *140:10 *140:27 18.3557 
4 *140:27 *140:33 24.9221 
5 *140:33 *870:B_N 38 
6 *140:33 *140:46 20.2407 
7 *140:46 *871:B 23 
8 *140:46 *828:B 27.9714 
9 *140:27 *825:B1 23 
*END

*D_NET *141 0.00489214
*CONN
*I *828:A I *D sky130_fd_sc_hd__nand2_2
*I *831:A1 I *D sky130_fd_sc_hd__o21a_2
*I *871:A I *D sky130_fd_sc_hd__or4b_2
*I *870:A_N I *D sky130_fd_sc_hd__and4bb_2
*I *930:Q O *D sky130_fd_sc_hd__dfxtp_2
*CAP
1 *828:A 4.38406e-05
2 *831:A1 0.00031995
3 *871:A 0
4 *870:A_N 0.00035915
5 *930:Q 0.000277747
6 *141:32 0.00036379
7 *141:25 6.58718e-05
8 *141:8 0.000600355
9 *141:6 0.000453081
10 *831:A1 *143:11 6.11286e-05
11 *831:A1 *143:65 7.4564e-05
12 *870:A_N *930:CLK 9.41492e-05
13 *141:6 *930:CLK 0.000385158
14 *141:8 *930:CLK 0.000210461
15 *141:25 *143:65 6.89135e-05
16 *77:16 *831:A1 1.14452e-05
17 *78:10 *828:A 0.000131735
18 *78:10 *831:A1 0.000293785
19 *79:8 *141:25 1.37349e-05
20 *80:8 *831:A1 0.000354788
21 *99:29 *141:25 0.000111852
22 *109:8 *870:A_N 0.00010018
23 *116:128 *870:A_N 0.000114125
24 *116:132 *828:A 0.000141879
25 *116:132 *831:A1 0.000142808
26 *121:42 *870:A_N 2.93747e-05
27 *121:50 *831:A1 9.20311e-06
28 *121:83 *831:A1 1.69668e-05
29 *121:94 *831:A1 4.2107e-05
*RES
1 *930:Q *141:6 27.4329 
2 *141:6 *141:8 2.52714 
3 *141:8 *870:A_N 29.7321 
4 *141:8 *141:25 31.9057 
5 *141:25 *871:A 23 
6 *141:6 *141:32 15 
7 *141:32 *831:A1 47.6529 
8 *141:32 *828:A 39.9057 
*END

*D_NET *142 0.00126376
*CONN
*I *832:A I *D sky130_fd_sc_hd__xor2_2
*I *871:D_N I *D sky130_fd_sc_hd__or4b_2
*I *870:D I *D sky130_fd_sc_hd__and4bb_2
*I *931:Q O *D sky130_fd_sc_hd__dfxtp_2
*CAP
1 *832:A 0.000150545
2 *871:D_N 0
3 *870:D 4.50565e-05
4 *931:Q 0.000134577
5 *142:19 0.000181248
6 *142:8 0.000210337
7 *79:8 *832:A 6.43005e-05
8 *81:8 *832:A 0
9 *81:8 *142:19 0
10 *110:8 *142:8 8.43466e-05
11 *110:20 *142:8 9.84794e-05
12 *110:46 *870:D 4.08537e-05
13 *110:46 *142:19 1.12487e-05
14 *140:46 *832:A 9.48318e-05
15 *140:46 *870:D 8.62783e-05
16 *140:46 *142:19 6.16531e-05
*RES
1 *931:Q *142:8 40.0507 
2 *142:8 *870:D 39.2014 
3 *142:8 *142:19 0.849286 
4 *142:19 *871:D_N 38 
5 *142:19 *832:A 41.5836 
*END

*D_NET *143 0.00949759
*CONN
*I *945:A I *D sky130_fd_sc_hd__clkbuf_16
*I *944:A I *D sky130_fd_sc_hd__clkbuf_16
*I *942:A I *D sky130_fd_sc_hd__clkbuf_16
*I *943:A I *D sky130_fd_sc_hd__clkbuf_16
*I *941:X O *D sky130_fd_sc_hd__clkbuf_16
*CAP
1 *945:A 0.000100408
2 *944:A 0.00010872
3 *942:A 0.000120383
4 *943:A 0
5 *941:X 0
6 *143:79 0.000247758
7 *143:67 0.000559509
8 *143:65 0.00152013
9 *143:43 0.00107654
10 *143:29 7.37903e-05
11 *143:25 0.00060846
12 *143:11 0.00208009
13 *143:6 0.00151126
14 *942:A *144:27 6.17437e-06
15 *942:A *148:98 5.06865e-05
16 *143:43 *144:8 6.19985e-05
17 *143:43 *148:98 7.02977e-05
18 *831:A1 *143:11 6.11286e-05
19 *831:A1 *143:65 7.4564e-05
20 *34:10 *143:25 4.28928e-05
21 *34:10 *143:29 0
22 *35:10 *143:11 0
23 *36:8 *143:11 5.80963e-05
24 *36:8 *143:65 0.000235117
25 *67:10 *143:29 2.58471e-05
26 *77:16 *143:11 8.05936e-05
27 *78:10 *143:65 0.000228655
28 *79:8 *143:65 2.68674e-06
29 *99:29 *143:65 1.17049e-05
30 *116:132 *143:65 0
31 *121:50 *143:11 0
32 *139:10 *143:11 9.22354e-05
33 *139:10 *143:25 2.79603e-05
34 *139:66 *143:11 3.57136e-05
35 *140:10 *143:11 0.000179639
36 *140:27 *143:11 7.56417e-05
37 *141:25 *143:65 6.89135e-05
*RES
1 *941:X *143:6 38 
2 *143:6 *143:11 14.2307 
3 *143:11 *143:25 44.3816 
4 *143:25 *143:29 9.3775 
5 *143:29 *943:A 38 
6 *143:11 *143:43 31.1054 
7 *143:43 *942:A 24.8125 
8 *143:6 *143:65 33.5393 
9 *143:65 *143:67 8.27536 
10 *143:67 *944:A 25.0196 
11 *143:65 *143:79 2.42357 
12 *143:79 *945:A 24.6779 
*END

*D_NET *144 0.0126228
*CONN
*I *910:CLK I *D sky130_fd_sc_hd__dfxtp_2
*I *932:CLK I *D sky130_fd_sc_hd__dfxtp_2
*I *937:CLK I *D sky130_fd_sc_hd__dfxtp_2
*I *938:CLK I *D sky130_fd_sc_hd__dfxtp_2
*I *933:CLK I *D sky130_fd_sc_hd__dfxtp_2
*I *935:CLK I *D sky130_fd_sc_hd__dfxtp_2
*I *936:CLK I *D sky130_fd_sc_hd__dfxtp_2
*I *946:A I *D sky130_fd_sc_hd__clkbuf_8
*I *942:X O *D sky130_fd_sc_hd__clkbuf_16
*CAP
1 *910:CLK 0.000361958
2 *932:CLK 0
3 *937:CLK 0
4 *938:CLK 0.000252456
5 *933:CLK 0.000544811
6 *935:CLK 0
7 *936:CLK 3.80995e-05
8 *946:A 7.10534e-05
9 *942:X 0.000472112
10 *144:80 0.000434325
11 *144:50 0.000149004
12 *144:44 0.00109684
13 *144:35 0.000893954
14 *144:31 0.000759297
15 *144:27 0.000554797
16 *144:10 0.000619268
17 *144:8 0.000591913
18 *910:CLK *960:A 2.01829e-05
19 *933:CLK *838:A1 0.00026808
20 *933:CLK *841:A0 9.59004e-05
21 *933:CLK *841:A1 0.000184407
22 *933:CLK *846:A 7.27182e-05
23 *938:CLK *855:A 0.000401771
24 *144:8 *148:98 0.000357205
25 *144:27 *148:98 0.00018329
26 *144:27 *148:108 0.000798354
27 *144:35 *855:A 1.13812e-05
28 *144:35 *148:139 0.00059632
29 *144:44 *846:A 0.000140259
30 *144:50 *844:A0 6.48049e-05
31 *144:50 *846:A 9.48381e-06
32 *144:50 *164:8 8.62876e-05
33 *838:S *933:CLK 0.000219971
34 *841:S *933:CLK 0.000144494
35 *847:S *144:35 0
36 *848:S *144:50 0
37 *936:D *144:44 0.000102732
38 *942:A *144:27 6.17437e-06
39 *16:10 *910:CLK 8.4047e-05
40 *38:10 *910:CLK 3.90213e-05
41 *38:10 *946:A 0.000191562
42 *38:10 *144:10 5.57651e-05
43 *38:10 *144:80 0.000141038
44 *42:8 *144:35 0
45 *43:12 *144:27 0.000118999
46 *43:12 *144:31 5.58274e-05
47 *44:10 *938:CLK 9.66668e-05
48 *82:39 *144:35 0
49 *87:12 *933:CLK 0.000357614
50 *89:10 *144:50 0
51 *90:10 *144:50 3.47781e-05
52 *91:10 *144:35 0
53 *92:10 *144:35 0
54 *94:10 *144:35 0.000112396
55 *96:10 *938:CLK 3.673e-05
56 *104:37 *946:A 8.76927e-06
57 *104:37 *144:10 8.49387e-06
58 *104:37 *144:27 0.000314666
59 *104:43 *946:A 0.00016107
60 *116:80 *910:CLK 0.000139647
61 *117:14 *910:CLK 0
62 *143:43 *144:8 6.19985e-05
*RES
1 *942:X *144:8 44.815 
2 *144:8 *144:10 0.849286 
3 *144:10 *946:A 40.61 
4 *144:10 *144:27 30.5564 
5 *144:27 *144:31 16.0979 
6 *144:31 *144:35 26.4136 
7 *144:35 *936:CLK 23.6214 
8 *144:35 *144:44 7.29143 
9 *144:44 *144:50 32.61 
10 *144:50 *935:CLK 23 
11 *144:44 *933:CLK 37.4379 
12 *144:31 *938:CLK 44.8771 
13 *144:27 *937:CLK 23 
14 *144:8 *144:80 1.90571 
15 *144:80 *932:CLK 38 
16 *144:80 *910:CLK 45.0221 
*END

*D_NET *145 0.0106073
*CONN
*I *922:CLK I *D sky130_fd_sc_hd__dfxtp_2
*I *923:CLK I *D sky130_fd_sc_hd__dfxtp_2
*I *929:CLK I *D sky130_fd_sc_hd__dfxtp_2
*I *926:CLK I *D sky130_fd_sc_hd__dfxtp_2
*I *927:CLK I *D sky130_fd_sc_hd__dfxtp_2
*I *928:CLK I *D sky130_fd_sc_hd__dfxtp_2
*I *934:CLK I *D sky130_fd_sc_hd__dfxtp_2
*I *924:CLK I *D sky130_fd_sc_hd__dfxtp_2
*I *925:CLK I *D sky130_fd_sc_hd__dfxtp_2
*I *943:X O *D sky130_fd_sc_hd__clkbuf_16
*CAP
1 *922:CLK 0.000288806
2 *923:CLK 0.000158232
3 *929:CLK 0.000292297
4 *926:CLK 0.000146281
5 *927:CLK 0.000204492
6 *928:CLK 0
7 *934:CLK 0.00048523
8 *924:CLK 0.000327676
9 *925:CLK 6.84964e-05
10 *943:X 0.000491857
11 *145:91 0.000480375
12 *145:89 0.000599405
13 *145:61 0.000538057
14 *145:59 0.000468036
15 *145:27 0.000812906
16 *145:16 0.000591553
17 *145:8 0.00101491
18 *811:A *929:CLK 0.000217134
19 *811:C *929:CLK 9.91548e-05
20 *812:A_N *145:16 0
21 *816:A3 *145:61 0.000238498
22 *819:A4 *927:CLK 0.000216131
23 *819:A4 *145:61 0.000216721
24 *820:B *926:CLK 1.59094e-05
25 *874:A *927:CLK 3.48759e-05
26 *925:D *145:16 1.64354e-05
27 *29:10 *923:CLK 0.000108129
28 *30:8 *924:CLK 0
29 *31:10 *924:CLK 1.83564e-05
30 *31:10 *934:CLK 5.56306e-05
31 *31:10 *145:16 0
32 *62:18 *923:CLK 5.5792e-05
33 *62:32 *929:CLK 2.95423e-05
34 *64:26 *926:CLK 0.000265466
35 *64:34 *927:CLK 0.000236667
36 *65:10 *923:CLK 5.68297e-05
37 *65:10 *145:91 1.7403e-05
38 *67:10 *929:CLK 6.06279e-05
39 *67:10 *145:16 0
40 *70:10 *145:61 0.000113235
41 *72:10 *927:CLK 3.71251e-05
42 *73:10 *926:CLK 2.4754e-05
43 *113:10 *145:89 1.56386e-05
44 *120:51 *922:CLK 2.23467e-05
45 *120:51 *923:CLK 3.21898e-05
46 *120:51 *145:89 0.000136578
47 *120:51 *145:91 1.60949e-05
48 *120:55 *145:61 9.47722e-05
49 *120:55 *145:89 1.16455e-05
50 *120:57 *927:CLK 1.22803e-05
51 *120:57 *145:61 8.92841e-05
52 *124:14 *922:CLK 1.47795e-05
53 *124:14 *929:CLK 0.000213302
54 *125:38 *922:CLK 0.000217118
55 *125:46 *922:CLK 0.000141352
56 *125:46 *929:CLK 6.93533e-05
57 *128:18 *927:CLK 0.000394994
58 *129:8 *927:CLK 2.25419e-05
*RES
1 *943:X *145:8 30.7886 
2 *145:8 *145:16 39.0314 
3 *145:16 *925:CLK 24.1186 
4 *145:16 *145:27 15 
5 *145:27 *924:CLK 44.1314 
6 *145:27 *934:CLK 47.0729 
7 *145:8 *928:CLK 23 
8 *943:X *145:59 38 
9 *145:59 *145:61 6.48357 
10 *145:61 *927:CLK 45.1879 
11 *145:61 *926:CLK 41.48 
12 *145:59 *145:89 5.66536 
13 *145:89 *145:91 0.673214 
14 *145:91 *929:CLK 46.2443 
15 *145:91 *923:CLK 41.2314 
16 *145:89 *922:CLK 43.8725 
*END

*D_NET *146 0.0100584
*CONN
*I *915:CLK I *D sky130_fd_sc_hd__dfxtp_2
*I *914:CLK I *D sky130_fd_sc_hd__dfxtp_2
*I *947:A I *D sky130_fd_sc_hd__clkbuf_4
*I *911:CLK I *D sky130_fd_sc_hd__dfxtp_2
*I *931:CLK I *D sky130_fd_sc_hd__dfxtp_2
*I *940:CLK I *D sky130_fd_sc_hd__dfxtp_2
*I *913:CLK I *D sky130_fd_sc_hd__dfxtp_2
*I *912:CLK I *D sky130_fd_sc_hd__dfxtp_2
*I *939:CLK I *D sky130_fd_sc_hd__dfxtp_2
*I *944:X O *D sky130_fd_sc_hd__clkbuf_16
*CAP
1 *915:CLK 0.000379271
2 *914:CLK 0
3 *947:A 0
4 *911:CLK 0.000148529
5 *931:CLK 0
6 *940:CLK 0
7 *913:CLK 9.43726e-05
8 *912:CLK 4.24511e-05
9 *939:CLK 0
10 *944:X 0
11 *146:97 0.000772774
12 *146:68 0.000238294
13 *146:60 0.000587749
14 *146:33 0.000649103
15 *146:26 0.000713855
16 *146:16 0.00122613
17 *146:14 0.000615671
18 *146:12 0.000975632
19 *146:8 0.000293552
20 *146:6 0.000528021
21 *913:CLK *886:A1 7.37814e-06
22 *913:CLK *150:73 8.9024e-05
23 *915:CLK *892:A 0.000142585
24 *915:CLK *150:98 2.59343e-05
25 *146:14 *150:10 4.75639e-05
26 *146:14 *150:28 0.000402749
27 *146:14 *168:8 4.57742e-05
28 *146:26 *150:32 0
29 *146:33 *150:32 0
30 *146:33 *150:52 0
31 *146:33 *150:65 0
32 *146:33 *150:73 0.000122397
33 *833:C *146:68 7.42209e-05
34 *858:B *146:26 8.17741e-05
35 *886:B1 *146:33 0
36 *892:C *915:CLK 0.000119002
37 *892:D *915:CLK 0.000140927
38 *911:D *911:CLK 4.48642e-05
39 *911:D *146:60 0.000231039
40 *931:D *146:68 5.67058e-05
41 *939:D *146:26 0.000122089
42 *940:D *146:14 0.000275729
43 *4:12 *913:CLK 0
44 *4:12 *146:26 0
45 *4:12 *146:33 0
46 *15:11 *146:26 7.03766e-05
47 *17:10 *146:12 4.6318e-06
48 *19:8 *913:CLK 3.56537e-05
49 *20:10 *146:97 4.10112e-05
50 *48:10 *146:33 0.000155417
51 *50:12 *146:97 0.000191157
52 *51:8 *915:CLK 0
53 *110:20 *146:68 1.59071e-05
54 *120:141 *146:68 4.9808e-05
55 *120:150 *146:8 0
56 *120:150 *146:12 0
57 *120:150 *146:68 0.000182863
58 *120:150 *146:97 0
59 *120:163 *146:97 0
60 *131:25 *915:CLK 1.64259e-05
*RES
1 *944:X *146:6 38 
2 *146:6 *146:8 2.61 
3 *146:8 *146:12 17.2579 
4 *146:12 *146:14 14.4379 
5 *146:14 *146:16 15 
6 *146:16 *146:26 27.4079 
7 *146:26 *939:CLK 23 
8 *146:16 *146:33 11.4136 
9 *146:33 *912:CLK 38.6214 
10 *146:33 *913:CLK 40.61 
11 *146:14 *940:CLK 23 
12 *146:12 *146:60 3.97714 
13 *146:60 *146:68 35.8414 
14 *146:68 *931:CLK 23 
15 *146:60 *911:CLK 25.5479 
16 *146:8 *947:A 38 
17 *146:6 *146:97 8.22357 
18 *146:97 *914:CLK 38 
19 *146:97 *915:CLK 45.9957 
*END

*D_NET *147 0.0121572
*CONN
*I *920:CLK I *D sky130_fd_sc_hd__dfxtp_2
*I *916:CLK I *D sky130_fd_sc_hd__dfxtp_2
*I *917:CLK I *D sky130_fd_sc_hd__dfxtp_2
*I *919:CLK I *D sky130_fd_sc_hd__dfxtp_2
*I *948:A I *D sky130_fd_sc_hd__clkbuf_8
*I *918:CLK I *D sky130_fd_sc_hd__dfxtp_2
*I *921:CLK I *D sky130_fd_sc_hd__dfxtp_2
*I *930:CLK I *D sky130_fd_sc_hd__dfxtp_2
*I *945:X O *D sky130_fd_sc_hd__clkbuf_16
*CAP
1 *920:CLK 0.000388051
2 *916:CLK 0
3 *917:CLK 0.000443755
4 *919:CLK 0.000231135
5 *948:A 0.000204337
6 *918:CLK 5.145e-05
7 *921:CLK 0.000687252
8 *930:CLK 0.000413704
9 *945:X 0.000581787
10 *147:93 0.000142005
11 *147:78 0.00118504
12 *147:72 0.0010358
13 *147:61 0.000538208
14 *147:16 0.00130247
15 *147:12 0.000348219
16 *147:10 0.000622766
17 *867:B *147:78 2.4754e-05
18 *870:A_N *930:CLK 9.41492e-05
19 *897:A2 *147:93 1.59312e-05
20 *900:A1 *147:93 0
21 *917:D *917:CLK 1.64354e-05
22 *919:D *919:CLK 0.000185428
23 *930:D *930:CLK 8.79002e-05
24 *47:10 *147:93 0.000108681
25 *47:29 *919:CLK 0.00014196
26 *47:29 *147:78 0.000569799
27 *51:29 *917:CLK 0
28 *51:39 *917:CLK 0.000118727
29 *51:39 *147:78 3.03981e-05
30 *51:48 *147:78 5.50049e-05
31 *51:60 *948:A 9.00922e-05
32 *51:60 *147:10 0
33 *53:8 *917:CLK 0.000400204
34 *57:14 *147:10 2.14301e-05
35 *58:10 *147:61 0
36 *59:16 *920:CLK 7.06229e-05
37 *59:24 *920:CLK 1.94812e-05
38 *60:10 *920:CLK 2.93747e-05
39 *102:14 *920:CLK 0
40 *108:8 *921:CLK 3.06338e-05
41 *112:16 *921:CLK 2.3191e-05
42 *112:16 *147:10 0.000192087
43 *112:16 *147:12 0.000167452
44 *112:16 *147:16 0.000411299
45 *114:14 *921:CLK 0.000119467
46 *115:10 *921:CLK 5.50106e-05
47 *116:128 *930:CLK 4.73314e-05
48 *132:47 *920:CLK 0
49 *132:51 *147:61 0
50 *133:8 *920:CLK 2.26489e-05
51 *133:8 *147:61 7.73214e-05
52 *133:8 *147:72 1.4471e-05
53 *134:8 *147:78 5.61255e-06
54 *135:29 *147:61 0.000138718
55 *138:38 *921:CLK 0
56 *141:6 *930:CLK 0.000385158
57 *141:8 *930:CLK 0.000210461
*RES
1 *945:X *147:10 43.1371 
2 *147:10 *147:12 2.25786 
3 *147:12 *147:16 20.4271 
4 *147:16 *930:CLK 33.1707 
5 *147:16 *921:CLK 34.6 
6 *147:12 *918:CLK 38.6214 
7 *147:10 *948:A 41.9564 
8 *945:X *147:61 43.4271 
9 *147:61 *919:CLK 43.3857 
10 *147:61 *147:72 0.849286 
11 *147:72 *147:78 24.2179 
12 *147:78 *917:CLK 32.2179 
13 *147:78 *147:93 32.2579 
14 *147:93 *916:CLK 23 
15 *147:72 *920:CLK 45.6436 
*END

*D_NET *148 0.0178538
*CONN
*I *856:B1 I *D sky130_fd_sc_hd__a31o_2
*I *880:C1 I *D sky130_fd_sc_hd__a211o_2
*I *883:A I *D sky130_fd_sc_hd__nor2_2
*I *849:A I *D sky130_fd_sc_hd__or2_2
*I *855:A I *D sky130_fd_sc_hd__or2_2
*I *852:A I *D sky130_fd_sc_hd__or2_2
*I *846:A I *D sky130_fd_sc_hd__or2_2
*I *837:A I *D sky130_fd_sc_hd__or2_2
*I *840:A I *D sky130_fd_sc_hd__or2_2
*I *843:A I *D sky130_fd_sc_hd__or2_2
*I *864:A I *D sky130_fd_sc_hd__inv_2
*I *949:X O *D sky130_fd_sc_hd__clkdlybuf4s25_1
*CAP
1 *856:B1 0
2 *880:C1 4.30943e-05
3 *883:A 0
4 *849:A 0
5 *855:A 0.000184035
6 *852:A 0
7 *846:A 0.000413888
8 *837:A 0
9 *840:A 3.34593e-05
10 *843:A 0.000428568
11 *864:A 0.000132706
12 *949:X 3.90897e-05
13 *148:139 0.000680849
14 *148:133 0.00069433
15 *148:108 0.00135359
16 *148:100 0.000742187
17 *148:98 0.000248942
18 *148:61 0.000585092
19 *148:57 0.00039833
20 *148:47 0.000694511
21 *148:45 0.000645178
22 *148:30 0.000564487
23 *148:28 0.000393379
24 *148:20 0.00119541
25 *148:8 0.000841125
26 *843:A *842:A1 2.78373e-05
27 *843:A *162:10 7.69569e-05
28 *148:8 *856:A3 3.22879e-05
29 *148:20 *866:B 0.000100069
30 *148:20 *149:36 0
31 *148:20 *159:8 0.000114092
32 *148:20 *167:12 0.000270682
33 *148:20 *167:18 0
34 *148:61 *162:10 2.86209e-05
35 *148:108 *847:A0 0
36 *835:S *840:A 5.56279e-05
37 *837:B *148:57 5.50106e-05
38 *845:S *148:133 5.50106e-05
39 *848:S *846:A 0.000140661
40 *856:A1 *148:8 2.02517e-05
41 *857:A3 *148:20 0.000141052
42 *878:B1 *148:45 1.78655e-05
43 *933:CLK *846:A 7.27182e-05
44 *938:CLK *855:A 0.000401771
45 *942:A *148:98 5.06865e-05
46 *4:18 *864:A 6.33761e-05
47 *4:18 *148:20 0.000194819
48 *40:8 *843:A 5.79559e-05
49 *82:16 *148:20 4.10817e-05
50 *82:37 *148:108 0.000196165
51 *82:39 *846:A 2.80852e-05
52 *82:39 *148:108 0.000362837
53 *82:95 *148:45 0.000134971
54 *83:12 *148:47 8.96625e-05
55 *83:12 *148:57 0.000124867
56 *84:8 *148:47 0.000314316
57 *84:8 *148:57 0.000431909
58 *84:8 *148:61 1.12863e-05
59 *89:10 *846:A 0
60 *90:10 *846:A 0
61 *100:32 *148:28 1.59071e-05
62 *100:38 *148:28 0.000110184
63 *100:45 *148:28 0.000406574
64 *100:55 *148:45 0.000245575
65 *100:69 *148:28 1.3523e-05
66 *103:8 *864:A 5.79559e-05
67 *104:37 *148:98 9.98158e-05
68 *104:43 *843:A 0
69 *104:43 *148:61 0
70 *104:43 *148:98 1.12863e-05
71 *104:45 *843:A 0
72 *105:14 *864:A 0
73 *105:25 *864:A 2.1819e-05
74 *109:25 *864:A 4.14048e-05
75 *109:25 *148:45 6.16531e-05
76 *115:47 *148:45 0.000187911
77 *116:18 *864:A 3.70094e-05
78 *116:80 *148:45 0
79 *117:14 *148:45 0.000147861
80 *117:14 *148:47 3.36312e-06
81 *118:8 *880:C1 0.000100061
82 *120:14 *148:98 4.49122e-05
83 *120:14 *148:108 5.56356e-05
84 *143:43 *148:98 7.02977e-05
85 *144:8 *148:98 0.000357205
86 *144:27 *148:98 0.00018329
87 *144:27 *148:108 0.000798354
88 *144:35 *855:A 1.13812e-05
89 *144:35 *148:139 0.00059632
90 *144:44 *846:A 0.000140259
91 *144:50 *846:A 9.48381e-06
*RES
1 *949:X *148:8 24.1186 
2 *148:8 *148:20 44.6036 
3 *148:20 *148:28 36.4629 
4 *148:28 *148:30 15 
5 *148:30 *864:A 41.0036 
6 *148:30 *148:45 10.2743 
7 *148:45 *148:47 5.075 
8 *148:47 *148:57 22.8714 
9 *148:57 *148:61 17.2579 
10 *148:61 *843:A 45.5193 
11 *148:61 *840:A 38.6214 
12 *148:57 *837:A 23 
13 *148:47 *148:98 36.7114 
14 *148:98 *148:100 15 
15 *148:100 *148:108 31.7579 
16 *148:108 *846:A 46.9279 
17 *148:108 *148:133 18.0036 
18 *148:133 *148:139 25.8957 
19 *148:139 *852:A 38 
20 *148:139 *855:A 43.4271 
21 *148:133 *849:A 23 
22 *148:100 *883:A 23 
23 *148:45 *880:C1 39.0979 
24 *148:8 *856:B1 23 
*END

*D_NET *149 0.00470046
*CONN
*I *882:A2 I *D sky130_fd_sc_hd__o211a_2
*I *866:B I *D sky130_fd_sc_hd__nand2_2
*I *865:B I *D sky130_fd_sc_hd__and2_2
*I *856:A2 I *D sky130_fd_sc_hd__a31o_2
*I *950:X O *D sky130_fd_sc_hd__clkdlybuf4s25_1
*CAP
1 *882:A2 0.000171919
2 *866:B 2.53778e-05
3 *865:B 0
4 *856:A2 0
5 *950:X 0.000352958
6 *149:36 0.000236154
7 *149:16 0.000545054
8 *149:10 0.000663896
9 *149:6 0.000854495
10 *882:A2 *882:A1 1.37039e-05
11 *149:6 *861:A 0.000141954
12 *149:36 *856:A3 4.38922e-05
13 *149:36 *167:18 4.27794e-05
14 *856:A1 *149:36 0.000181256
15 *857:A3 *149:10 0
16 *4:18 *866:B 6.33857e-05
17 *97:10 *149:16 0.00010655
18 *97:10 *149:36 0.000114626
19 *100:23 *149:16 8.6949e-05
20 *100:23 *149:36 5.50106e-05
21 *100:32 *149:16 0.000405127
22 *110:20 *882:A2 0.00019004
23 *110:20 *149:6 0.000165908
24 *110:28 *149:6 0.000139357
25 *116:50 *149:10 0
26 *148:20 *866:B 0.000100069
27 *148:20 *149:36 0
*RES
1 *950:X *149:6 29.815 
2 *149:6 *149:10 20.4271 
3 *149:10 *149:16 22.9957 
4 *149:16 *149:36 35.22 
5 *149:36 *856:A2 23 
6 *149:16 *865:B 23 
7 *149:10 *866:B 39.0979 
8 *149:6 *882:A2 26.9771 
*END

*D_NET *150 0.00954882
*CONN
*I *889:A1 I *D sky130_fd_sc_hd__a311o_2
*I *888:A1 I *D sky130_fd_sc_hd__a21oi_2
*I *892:A I *D sky130_fd_sc_hd__and4_2
*I *891:A1 I *D sky130_fd_sc_hd__a31o_2
*I *886:A1 I *D sky130_fd_sc_hd__a21oi_2
*I *885:A1 I *D sky130_fd_sc_hd__o21ai_2
*I *861:A I *D sky130_fd_sc_hd__inv_2
*I *959:A I *D sky130_fd_sc_hd__clkdlybuf4s25_1
*I *882:A1 I *D sky130_fd_sc_hd__o211a_2
*I *911:Q O *D sky130_fd_sc_hd__dfxtp_2
*CAP
1 *889:A1 0.000159059
2 *888:A1 0
3 *892:A 7.95113e-05
4 *891:A1 0
5 *886:A1 0.000214938
6 *885:A1 6.72871e-05
7 *861:A 8.34495e-05
8 *959:A 0.000248377
9 *882:A1 3.62691e-06
10 *911:Q 0.000851605
11 *150:98 9.14271e-05
12 *150:92 0.000858102
13 *150:73 0.0011551
14 *150:69 0.000397843
15 *150:65 0.000403531
16 *150:52 0.000383467
17 *150:32 0.000551508
18 *150:28 0.00102657
19 *150:10 0.000264897
20 *150:32 *857:A1 0
21 *150:32 *859:A1 0
22 *882:A2 *882:A1 1.37039e-05
23 *885:A2 *885:A1 5.67058e-05
24 *886:A2 *886:A1 9.84794e-05
25 *886:B1 *150:52 3.70094e-05
26 *886:B1 *150:65 0.000195248
27 *886:B1 *150:73 0
28 *888:A2 *889:A1 9.41704e-05
29 *888:A2 *150:69 0.000265072
30 *888:B1 *889:A1 1.5769e-05
31 *889:C1 *150:52 0
32 *892:C *892:A 0.000259883
33 *892:C *150:92 9.77405e-05
34 *892:C *150:98 3.54728e-05
35 *913:CLK *886:A1 7.37814e-06
36 *913:CLK *150:73 8.9024e-05
37 *915:CLK *892:A 0.000142585
38 *915:CLK *150:98 2.59343e-05
39 *940:D *150:28 5.3304e-05
40 *15:11 *150:32 0
41 *17:10 *150:10 3.31683e-05
42 *18:8 *886:A1 8.77506e-05
43 *18:8 *150:73 5.08899e-05
44 *18:8 *150:92 2.31209e-05
45 *46:8 *150:32 3.47781e-05
46 *46:8 *150:52 0.000114083
47 *48:10 *150:69 1.32314e-05
48 *103:21 *150:10 4.6318e-06
49 *110:20 *882:A1 1.28818e-05
50 *116:65 *889:A1 1.14154e-05
51 *121:16 *150:52 0
52 *122:8 *885:A1 9.84851e-05
53 *130:18 *150:98 4.2812e-06
54 *130:22 *889:A1 1.76557e-05
55 *146:14 *150:10 4.75639e-05
56 *146:14 *150:28 0.000402749
57 *146:26 *150:32 0
58 *146:33 *150:32 0
59 *146:33 *150:52 0
60 *146:33 *150:65 0
61 *146:33 *150:73 0.000122397
62 *149:6 *861:A 0.000141954
*RES
1 *911:Q *150:10 41.8321 
2 *150:10 *882:A1 38.1502 
3 *911:Q *150:28 46.7207 
4 *150:28 *150:32 19.0186 
5 *150:32 *959:A 27.4743 
6 *150:32 *861:A 25.0507 
7 *150:28 *150:52 4.72286 
8 *150:52 *885:A1 39.5743 
9 *150:52 *150:65 17.61 
10 *150:65 *150:69 3.50071 
11 *150:69 *150:73 20.6032 
12 *150:73 *886:A1 43.0646 
13 *150:73 *150:92 26.5689 
14 *150:92 *150:98 31.5536 
15 *150:98 *891:A1 23 
16 *150:92 *892:A 26.0036 
17 *150:69 *888:A1 23 
18 *150:65 *889:A1 26.19 
*END

*D_NET *151 0.00305594
*CONN
*I *960:A I *D sky130_fd_sc_hd__clkdlybuf4s25_1
*I *878:C1 I *D sky130_fd_sc_hd__o211a_2
*I *910:Q O *D sky130_fd_sc_hd__dfxtp_2
*CAP
1 *960:A 0.0012577
2 *878:C1 0
3 *910:Q 0
4 *151:12 0.000115549
5 *151:4 0.00137325
6 *910:CLK *960:A 2.01829e-05
7 *910:D *960:A 1.64354e-05
8 *82:29 *960:A 5.41288e-05
9 *82:37 *960:A 4.39607e-05
10 *82:95 *151:12 0.00014411
11 *96:10 *960:A 3.06338e-05
12 *109:35 *151:12 0
*RES
1 *910:Q *151:4 23 
2 *151:4 *151:12 32.5271 
3 *151:12 *878:C1 23 
4 *151:4 *960:A 44.1493 
*END

*D_NET *152 0.00158623
*CONN
*I *835:A1 I *D sky130_fd_sc_hd__mux2_1
*I *951:X O *D sky130_fd_sc_hd__clkdlybuf4s25_1
*CAP
1 *835:A1 0
2 *951:X 0.000539429
3 *152:10 0.000539429
4 *842:S *152:10 0
5 *7:9 *152:10 3.7122e-06
6 *39:10 *152:10 7.81176e-05
7 *40:14 *152:10 0.000425539
*RES
1 *951:X *152:10 47.5907 
2 *152:10 *835:A1 38 
*END

*D_NET *153 0.00193783
*CONN
*I *838:A1 I *D sky130_fd_sc_hd__mux2_1
*I *952:X O *D sky130_fd_sc_hd__clkdlybuf4s25_1
*CAP
1 *838:A1 0.000491527
2 *952:X 0.000242523
3 *153:8 0.00073405
4 *838:A1 *161:10 2.72257e-05
5 *842:S *153:8 0
6 *933:CLK *838:A1 0.00026808
7 *933:D *838:A1 1.74843e-05
8 *85:10 *838:A1 0.00015694
*RES
1 *952:X *153:8 42.3707 
2 *153:8 *838:A1 48.1914 
*END

*D_NET *154 0.00100631
*CONN
*I *841:A1 I *D sky130_fd_sc_hd__mux2_1
*I *953:X O *D sky130_fd_sc_hd__clkdlybuf4s25_1
*CAP
1 *841:A1 8.55102e-05
2 *953:X 0.00019652
3 *154:8 0.000282031
4 *841:A1 *841:A0 5.79559e-05
5 *933:CLK *841:A1 0.000184407
6 *104:55 *154:8 0.000199885
*RES
1 *953:X *154:8 42.3707 
2 *154:8 *841:A1 40.0507 
*END

*D_NET *155 0.00116617
*CONN
*I *844:A1 I *D sky130_fd_sc_hd__mux2_1
*I *954:X O *D sky130_fd_sc_hd__clkdlybuf4s25_1
*CAP
1 *844:A1 0
2 *954:X 0.000299561
3 *155:6 0.000299561
4 *155:6 *844:A0 5.50049e-05
5 *10:9 *155:6 0.000315857
6 *104:55 *155:6 0.000196184
*RES
1 *954:X *155:6 30.2914 
2 *155:6 *844:A1 23 
*END

*D_NET *156 0.000550162
*CONN
*I *847:A1 I *D sky130_fd_sc_hd__mux2_1
*I *955:X O *D sky130_fd_sc_hd__clkdlybuf4s25_1
*CAP
1 *847:A1 0.000165852
2 *955:X 0.000165852
3 *847:A1 *847:A0 5.3304e-05
4 *847:S *847:A1 2.32004e-05
5 *91:10 *847:A1 0.000141954
*RES
1 *955:X *847:A1 49.48 
*END

*D_NET *157 0.0003593
*CONN
*I *850:A1 I *D sky130_fd_sc_hd__mux2_1
*I *956:X O *D sky130_fd_sc_hd__clkdlybuf4s25_1
*CAP
1 *850:A1 0.00017965
2 *956:X 0.00017965
*RES
1 *956:X *850:A1 49.0036 
*END

*D_NET *158 0.000579012
*CONN
*I *853:A1 I *D sky130_fd_sc_hd__mux2_1
*I *957:X O *D sky130_fd_sc_hd__clkdlybuf4s25_1
*CAP
1 *853:A1 0.000180387
2 *957:X 0.000180387
3 *95:10 *853:A1 0.000139346
4 *104:16 *853:A1 7.88926e-05
*RES
1 *957:X *853:A1 49.9564 
*END

*D_NET *159 0.000699782
*CONN
*I *856:A3 I *D sky130_fd_sc_hd__a31o_2
*I *958:X O *D sky130_fd_sc_hd__clkdlybuf4s25_1
*CAP
1 *856:A3 0.000126963
2 *958:X 6.90544e-05
3 *159:8 0.000196017
4 *856:A1 *856:A3 0.000117475
5 *148:8 *856:A3 3.22879e-05
6 *148:20 *159:8 0.000114092
7 *149:36 *856:A3 4.38922e-05
*RES
1 *958:X *159:8 39.5536 
2 *159:8 *856:A3 41.1693 
*END

*D_NET *160 0.000864376
*CONN
*I *879:A I *D sky130_fd_sc_hd__or2_2
*I *836:A1 I *D sky130_fd_sc_hd__mux2_1
*I *932:Q O *D sky130_fd_sc_hd__dfxtp_2
*CAP
1 *879:A 4.41496e-05
2 *836:A1 2.596e-05
3 *932:Q 0.000122649
4 *160:10 7.01096e-05
5 *160:8 0.000122649
6 *82:95 *836:A1 0.000102971
7 *82:106 *836:A1 4.21921e-05
8 *82:106 *879:A 0.000145171
9 *118:8 *836:A1 0.000145163
10 *118:8 *879:A 4.33627e-05
*RES
1 *932:Q *160:8 39.9057 
2 *160:8 *160:10 15 
3 *160:10 *836:A1 24.5743 
4 *160:10 *879:A 24.5743 
*END

*D_NET *161 0.00163544
*CONN
*I *839:A1 I *D sky130_fd_sc_hd__mux2_1
*I *835:A0 I *D sky130_fd_sc_hd__mux2_1
*I *933:Q O *D sky130_fd_sc_hd__dfxtp_2
*CAP
1 *839:A1 0
2 *835:A0 0.00023259
3 *933:Q 0.000268364
4 *161:12 0.00023259
5 *161:10 0.000268364
6 *835:S *835:A0 9.84851e-05
7 *838:A1 *161:10 2.72257e-05
8 *839:S *835:A0 4.67488e-05
9 *39:10 *835:A0 9.88574e-06
10 *82:106 *161:10 1.22803e-05
11 *85:10 *161:10 0.000166522
12 *86:8 *835:A0 0.000272383
*RES
1 *933:Q *161:10 42.6607 
2 *161:10 *161:12 15 
3 *161:12 *835:A0 28.3857 
4 *161:12 *839:A1 23 
*END

*D_NET *162 0.00166749
*CONN
*I *838:A0 I *D sky130_fd_sc_hd__mux2_1
*I *842:A1 I *D sky130_fd_sc_hd__mux2_1
*I *934:Q O *D sky130_fd_sc_hd__dfxtp_2
*CAP
1 *838:A0 6.94194e-05
2 *842:A1 0.000127491
3 *934:Q 0.000314465
4 *162:10 0.000511376
5 *842:A0 *842:A1 5.67058e-05
6 *843:A *842:A1 2.78373e-05
7 *843:A *162:10 7.69569e-05
8 *40:8 *842:A1 7.88828e-05
9 *40:14 *842:A1 7.76364e-06
10 *40:14 *162:10 5.80278e-05
11 *83:12 *162:10 9.04083e-05
12 *87:12 *838:A0 9.84794e-05
13 *87:12 *842:A1 8.62783e-05
14 *87:12 *162:10 3.47781e-05
15 *148:61 *162:10 2.86209e-05
*RES
1 *934:Q *162:10 44.4007 
2 *162:10 *842:A1 41.1279 
3 *162:10 *838:A0 39.0979 
*END

*D_NET *163 0.00181046
*CONN
*I *845:A1 I *D sky130_fd_sc_hd__mux2_1
*I *841:A0 I *D sky130_fd_sc_hd__mux2_1
*I *935:Q O *D sky130_fd_sc_hd__dfxtp_2
*CAP
1 *845:A1 0.00037499
2 *841:A0 0.000163781
3 *935:Q 0.000267679
4 *163:10 0.00080645
5 *841:A1 *841:A0 5.79559e-05
6 *845:S *845:A1 4.37033e-05
7 *933:CLK *841:A0 9.59004e-05
8 *41:8 *845:A1 0
9 *41:8 *163:10 0
10 *89:10 *845:A1 0
*RES
1 *935:Q *163:10 41.2521 
2 *163:10 *841:A0 40.5271 
3 *163:10 *845:A1 44.815 
*END

*D_NET *164 0.0013196
*CONN
*I *848:A1 I *D sky130_fd_sc_hd__mux2_1
*I *844:A0 I *D sky130_fd_sc_hd__mux2_1
*I *936:Q O *D sky130_fd_sc_hd__dfxtp_2
*CAP
1 *848:A1 0.000162159
2 *844:A0 0.00030703
3 *936:Q 5.42061e-05
4 *164:8 0.000523395
5 *848:S *844:A0 0
6 *848:S *848:A1 1.94812e-05
7 *848:S *164:8 0
8 *10:9 *844:A0 3.3123e-05
9 *89:10 *844:A0 0
10 *104:55 *844:A0 1.41077e-05
11 *144:50 *844:A0 6.48049e-05
12 *144:50 *164:8 8.62876e-05
13 *155:6 *844:A0 5.50049e-05
*RES
1 *936:Q *164:8 39.2014 
2 *164:8 *844:A0 43.8207 
3 *164:8 *848:A1 40.0507 
*END

*D_NET *165 0.00145999
*CONN
*I *851:A1 I *D sky130_fd_sc_hd__mux2_1
*I *847:A0 I *D sky130_fd_sc_hd__mux2_1
*I *937:Q O *D sky130_fd_sc_hd__dfxtp_2
*CAP
1 *851:A1 0.000100634
2 *847:A0 0.000372627
3 *937:Q 7.83553e-05
4 *165:8 0.000551617
5 *847:A1 *847:A0 5.3304e-05
6 *847:S *847:A0 9.5877e-05
7 *851:A0 *851:A1 0.000147656
8 *851:S *851:A1 2.10502e-05
9 *93:8 *165:8 3.88725e-05
10 *148:108 *847:A0 0
*RES
1 *937:Q *165:8 39.5536 
2 *165:8 *847:A0 45.1464 
3 *165:8 *851:A1 40.5271 
*END

*D_NET *166 0.00119417
*CONN
*I *854:A1 I *D sky130_fd_sc_hd__mux2_1
*I *850:A0 I *D sky130_fd_sc_hd__mux2_1
*I *938:Q O *D sky130_fd_sc_hd__dfxtp_2
*CAP
1 *854:A1 0.000137504
2 *850:A0 5.54727e-05
3 *938:Q 0.000232156
4 *166:8 0.000425132
5 *82:29 *854:A1 0
6 *82:37 *850:A0 8.78864e-05
7 *82:37 *854:A1 0.000241259
8 *104:16 *854:A1 1.47563e-05
*RES
1 *938:Q *166:8 41.0036 
2 *166:8 *850:A0 39.2014 
3 *166:8 *854:A1 41.6664 
*END

*D_NET *167 0.001901
*CONN
*I *857:B2 I *D sky130_fd_sc_hd__a32o_2
*I *853:A0 I *D sky130_fd_sc_hd__mux2_1
*I *939:Q O *D sky130_fd_sc_hd__dfxtp_2
*CAP
1 *857:B2 0
2 *853:A0 0
3 *939:Q 0.000149076
4 *167:18 0.000242962
5 *167:12 0.000399512
6 *167:8 0.000305627
7 *4:12 *167:8 0
8 *4:18 *167:12 0.000189002
9 *82:16 *167:18 0.000212621
10 *82:29 *167:18 0
11 *98:8 *167:8 0
12 *104:8 *167:18 7.03869e-05
13 *104:16 *167:18 1.83564e-05
14 *148:20 *167:12 0.000270682
15 *148:20 *167:18 0
16 *149:36 *167:18 4.27794e-05
*RES
1 *939:Q *167:8 40.61 
2 *167:8 *167:12 19.9093 
3 *167:12 *167:18 35.4271 
4 *167:18 *853:A0 23 
5 *167:12 *857:B2 23 
*END

*D_NET *168 0.00232731
*CONN
*I *859:A1 I *D sky130_fd_sc_hd__a21o_2
*I *857:A1 I *D sky130_fd_sc_hd__a32o_2
*I *940:Q O *D sky130_fd_sc_hd__dfxtp_2
*CAP
1 *859:A1 0.000173686
2 *857:A1 0.000291322
3 *940:Q 0.000129201
4 *168:8 0.000594208
5 *859:B1 *859:A1 2.93845e-05
6 *15:11 *857:A1 0
7 *46:8 *859:A1 3.21327e-05
8 *75:8 *857:A1 7.03663e-05
9 *75:8 *859:A1 0.000105165
10 *97:10 *857:A1 0
11 *100:8 *857:A1 0.000425539
12 *110:28 *857:A1 0.00042553
13 *121:16 *857:A1 4.99753e-06
14 *146:14 *168:8 4.57742e-05
15 *150:32 *857:A1 0
16 *150:32 *859:A1 0
*RES
1 *940:Q *168:8 39.5743 
2 *168:8 *857:A1 46.5964 
3 *168:8 *859:A1 41.5836 
*END
