*SPEF "ieee 1481-1999"
*DESIGN "alu8"
*DATE "17:10:29 Wednesday September 16, 2026"
*VENDOR "The OpenROAD Project"
*PROGRAM "OpenROAD"
*VERSION "dcf36133a369abc8f3c5e5738cd4d82e4903c0e0"
*DESIGN_FLOW "NAME_SCOPE LOCAL" "PIN_CAP NONE"
*DIVIDER /
*DELIMITER :
*BUS_DELIMITER []
*T_UNIT 1 NS
*C_UNIT 1 PF
*R_UNIT 1 OHM
*L_UNIT 1 HENRY

*NAME_MAP
*1 A[0]
*2 A[1]
*3 A[2]
*4 A[3]
*5 A[4]
*6 A[5]
*7 A[6]
*8 A[7]
*9 B[0]
*10 B[1]
*11 B[2]
*12 B[3]
*13 B[4]
*14 B[5]
*15 B[6]
*16 B[7]
*17 CARRY
*18 OP[0]
*19 OP[1]
*20 OP[2]
*23 Y[0]
*24 Y[1]
*25 Y[2]
*26 Y[3]
*27 Y[4]
*28 Y[5]
*29 Y[6]
*30 Y[7]
*31 _000_
*32 _001_
*33 _002_
*34 _003_
*35 _004_
*36 _005_
*37 _006_
*38 _007_
*39 _008_
*40 _009_
*41 _010_
*42 _011_
*43 _012_
*44 _013_
*45 _014_
*46 _015_
*47 _016_
*48 _017_
*49 _018_
*50 _019_
*51 _020_
*52 _021_
*53 _022_
*54 _023_
*55 _024_
*56 _025_
*57 _026_
*58 _027_
*59 _028_
*60 _029_
*61 _030_
*62 _031_
*63 _032_
*64 _033_
*65 _034_
*66 _035_
*67 _036_
*68 _037_
*69 _038_
*70 _039_
*71 _040_
*72 _041_
*73 _042_
*74 _043_
*75 _044_
*76 _045_
*77 _046_
*78 _047_
*79 _048_
*80 _049_
*81 _050_
*82 _051_
*83 _052_
*84 _053_
*85 _054_
*86 _055_
*87 _056_
*88 _057_
*89 _058_
*90 _059_
*91 _060_
*92 _061_
*93 _062_
*94 _063_
*95 _064_
*96 _065_
*97 _066_
*98 _067_
*99 _068_
*100 _069_
*101 _070_
*102 _071_
*103 _072_
*104 _073_
*105 _074_
*106 _075_
*107 _076_
*108 _077_
*109 _078_
*110 _079_
*111 _080_
*112 _081_
*113 _082_
*114 _083_
*115 _084_
*116 _085_
*117 _086_
*118 _087_
*119 _088_
*120 _089_
*121 _090_
*122 _091_
*123 _092_
*124 _093_
*125 _094_
*126 _095_
*127 _096_
*128 _097_
*129 _098_
*130 _099_
*131 _100_
*132 _101_
*133 _102_
*134 _103_
*135 _104_
*136 _105_
*137 _106_
*138 _107_
*139 _108_
*140 _109_
*141 _110_
*142 _111_
*143 _112_
*144 _113_
*145 _114_
*146 _115_
*147 _116_
*148 _117_
*149 _118_
*150 _119_
*151 _120_
*152 _121_
*153 _122_
*154 _123_
*155 net1
*156 net10
*157 net11
*158 net12
*159 net13
*160 net14
*161 net15
*162 net16
*163 net17
*164 net18
*165 net19
*166 net2
*167 net20
*168 net21
*169 net22
*170 net23
*171 net24
*172 net25
*173 net26
*174 net27
*175 net28
*176 net29
*177 net3
*178 net30
*179 net31
*180 net32
*181 net33
*182 net34
*183 net4
*184 net5
*185 net6
*186 net7
*187 net8
*188 net9
*189 FILLER_0_100
*190 FILLER_0_103
*191 FILLER_0_106
*192 FILLER_0_109
*193 FILLER_0_113
*194 FILLER_0_27
*195 FILLER_0_3
*196 FILLER_0_34
*197 FILLER_0_37
*198 FILLER_0_47
*199 FILLER_0_50
*200 FILLER_0_53
*201 FILLER_0_57
*202 FILLER_0_6
*203 FILLER_0_75
*204 FILLER_0_78
*205 FILLER_0_81
*206 FILLER_0_85
*207 FILLER_0_88
*208 FILLER_0_9
*209 FILLER_0_91
*210 FILLER_0_94
*211 FILLER_0_97
*212 FILLER_10_108
*213 FILLER_10_111
*214 FILLER_10_3
*215 FILLER_10_45
*216 FILLER_10_48
*217 FILLER_10_56
*218 FILLER_10_59
*219 FILLER_10_75
*220 FILLER_10_85
*221 FILLER_10_88
*222 FILLER_10_91
*223 FILLER_10_94
*224 FILLER_11_103
*225 FILLER_11_113
*226 FILLER_11_23
*227 FILLER_11_40
*228 FILLER_11_44
*229 FILLER_11_47
*230 FILLER_11_57
*231 FILLER_11_60
*232 FILLER_11_63
*233 FILLER_11_72
*234 FILLER_11_75
*235 FILLER_11_84
*236 FILLER_11_87
*237 FILLER_11_90
*238 FILLER_11_93
*239 FILLER_12_103
*240 FILLER_12_18
*241 FILLER_12_21
*242 FILLER_12_24
*243 FILLER_12_27
*244 FILLER_12_29
*245 FILLER_12_3
*246 FILLER_12_34
*247 FILLER_12_37
*248 FILLER_12_40
*249 FILLER_12_43
*250 FILLER_12_63
*251 FILLER_12_66
*252 FILLER_12_69
*253 FILLER_12_78
*254 FILLER_12_81
*255 FILLER_12_85
*256 FILLER_13_113
*257 FILLER_13_17
*258 FILLER_13_20
*259 FILLER_13_29
*260 FILLER_13_32
*261 FILLER_13_35
*262 FILLER_13_38
*263 FILLER_13_41
*264 FILLER_13_44
*265 FILLER_13_47
*266 FILLER_13_50
*267 FILLER_13_53
*268 FILLER_13_57
*269 FILLER_13_60
*270 FILLER_13_63
*271 FILLER_13_66
*272 FILLER_13_69
*273 FILLER_13_72
*274 FILLER_13_75
*275 FILLER_13_78
*276 FILLER_13_81
*277 FILLER_13_94
*278 FILLER_14_109
*279 FILLER_14_112
*280 FILLER_14_18
*281 FILLER_14_29
*282 FILLER_14_46
*283 FILLER_14_49
*284 FILLER_14_60
*285 FILLER_14_63
*286 FILLER_14_66
*287 FILLER_14_69
*288 FILLER_14_72
*289 FILLER_14_75
*290 FILLER_14_78
*291 FILLER_14_81
*292 FILLER_14_85
*293 FILLER_14_88
*294 FILLER_14_91
*295 FILLER_15_102
*296 FILLER_15_113
*297 FILLER_15_15
*298 FILLER_15_21
*299 FILLER_15_24
*300 FILLER_15_27
*301 FILLER_15_3
*302 FILLER_15_30
*303 FILLER_15_38
*304 FILLER_15_41
*305 FILLER_15_44
*306 FILLER_15_47
*307 FILLER_15_65
*308 FILLER_15_68
*309 FILLER_15_71
*310 FILLER_15_79
*311 FILLER_15_82
*312 FILLER_15_85
*313 FILLER_15_88
*314 FILLER_15_91
*315 FILLER_15_99
*316 FILLER_16_102
*317 FILLER_16_11
*318 FILLER_16_110
*319 FILLER_16_113
*320 FILLER_16_29
*321 FILLER_16_40
*322 FILLER_16_43
*323 FILLER_16_46
*324 FILLER_16_73
*325 FILLER_16_83
*326 FILLER_16_85
*327 FILLER_16_88
*328 FILLER_17_100
*329 FILLER_17_106
*330 FILLER_17_109
*331 FILLER_17_113
*332 FILLER_17_13
*333 FILLER_17_40
*334 FILLER_17_49
*335 FILLER_17_64
*336 FILLER_17_67
*337 FILLER_17_70
*338 FILLER_17_73
*339 FILLER_17_88
*340 FILLER_17_94
*341 FILLER_17_97
*342 FILLER_18_100
*343 FILLER_18_103
*344 FILLER_18_106
*345 FILLER_18_109
*346 FILLER_18_113
*347 FILLER_18_12
*348 FILLER_18_15
*349 FILLER_18_18
*350 FILLER_18_21
*351 FILLER_18_24
*352 FILLER_18_27
*353 FILLER_18_29
*354 FILLER_18_3
*355 FILLER_18_32
*356 FILLER_18_37
*357 FILLER_18_40
*358 FILLER_18_43
*359 FILLER_18_46
*360 FILLER_18_6
*361 FILLER_18_65
*362 FILLER_18_68
*363 FILLER_18_71
*364 FILLER_18_74
*365 FILLER_18_83
*366 FILLER_18_85
*367 FILLER_18_88
*368 FILLER_18_9
*369 FILLER_18_91
*370 FILLER_18_94
*371 FILLER_18_97
*372 FILLER_1_101
*373 FILLER_1_104
*374 FILLER_1_107
*375 FILLER_1_110
*376 FILLER_1_113
*377 FILLER_1_3
*378 FILLER_1_37
*379 FILLER_1_40
*380 FILLER_1_43
*381 FILLER_1_46
*382 FILLER_1_49
*383 FILLER_1_6
*384 FILLER_1_77
*385 FILLER_1_87
*386 FILLER_1_9
*387 FILLER_1_95
*388 FILLER_1_98
*389 FILLER_2_102
*390 FILLER_2_105
*391 FILLER_2_108
*392 FILLER_2_111
*393 FILLER_2_21
*394 FILLER_2_26
*395 FILLER_2_3
*396 FILLER_2_36
*397 FILLER_2_39
*398 FILLER_2_42
*399 FILLER_2_45
*400 FILLER_2_48
*401 FILLER_2_6
*402 FILLER_2_70
*403 FILLER_2_81
*404 FILLER_2_90
*405 FILLER_2_99
*406 FILLER_3_101
*407 FILLER_3_104
*408 FILLER_3_107
*409 FILLER_3_110
*410 FILLER_3_113
*411 FILLER_3_20
*412 FILLER_3_23
*413 FILLER_3_3
*414 FILLER_3_40
*415 FILLER_3_43
*416 FILLER_3_46
*417 FILLER_3_57
*418 FILLER_3_69
*419 FILLER_3_72
*420 FILLER_3_75
*421 FILLER_3_91
*422 FILLER_3_98
*423 FILLER_4_11
*424 FILLER_4_14
*425 FILLER_4_17
*426 FILLER_4_39
*427 FILLER_4_42
*428 FILLER_4_49
*429 FILLER_4_52
*430 FILLER_4_66
*431 FILLER_4_69
*432 FILLER_4_72
*433 FILLER_4_75
*434 FILLER_4_78
*435 FILLER_4_81
*436 FILLER_4_85
*437 FILLER_4_88
*438 FILLER_4_91
*439 FILLER_4_97
*440 FILLER_5_102
*441 FILLER_5_113
*442 FILLER_5_21
*443 FILLER_5_24
*444 FILLER_5_27
*445 FILLER_5_37
*446 FILLER_5_40
*447 FILLER_5_43
*448 FILLER_5_46
*449 FILLER_5_49
*450 FILLER_5_57
*451 FILLER_5_68
*452 FILLER_5_71
*453 FILLER_5_74
*454 FILLER_5_77
*455 FILLER_5_83
*456 FILLER_6_29
*457 FILLER_6_32
*458 FILLER_6_35
*459 FILLER_6_38
*460 FILLER_6_41
*461 FILLER_6_44
*462 FILLER_6_53
*463 FILLER_6_56
*464 FILLER_6_64
*465 FILLER_6_67
*466 FILLER_6_70
*467 FILLER_6_73
*468 FILLER_6_81
*469 FILLER_6_85
*470 FILLER_6_88
*471 FILLER_6_91
*472 FILLER_7_107
*473 FILLER_7_110
*474 FILLER_7_113
*475 FILLER_7_29
*476 FILLER_7_3
*477 FILLER_7_32
*478 FILLER_7_35
*479 FILLER_7_44
*480 FILLER_7_57
*481 FILLER_7_6
*482 FILLER_7_60
*483 FILLER_7_63
*484 FILLER_7_66
*485 FILLER_7_69
*486 FILLER_7_72
*487 FILLER_7_80
*488 FILLER_7_83
*489 FILLER_7_86
*490 FILLER_7_89
*491 FILLER_7_92
*492 FILLER_7_95
*493 FILLER_7_98
*494 FILLER_8_105
*495 FILLER_8_22
*496 FILLER_8_25
*497 FILLER_8_29
*498 FILLER_8_3
*499 FILLER_8_32
*500 FILLER_8_35
*501 FILLER_8_38
*502 FILLER_8_41
*503 FILLER_8_44
*504 FILLER_8_47
*505 FILLER_8_50
*506 FILLER_8_6
*507 FILLER_8_62
*508 FILLER_8_65
*509 FILLER_8_80
*510 FILLER_8_83
*511 FILLER_8_85
*512 FILLER_8_88
*513 FILLER_8_91
*514 FILLER_9_103
*515 FILLER_9_113
*516 FILLER_9_19
*517 FILLER_9_22
*518 FILLER_9_25
*519 FILLER_9_28
*520 FILLER_9_37
*521 FILLER_9_40
*522 FILLER_9_43
*523 FILLER_9_46
*524 FILLER_9_49
*525 FILLER_9_52
*526 FILLER_9_55
*527 FILLER_9_57
*528 FILLER_9_60
*529 FILLER_9_63
*530 FILLER_9_84
*531 FILLER_9_87
*532 PHY_EDGE_ROW_0_Left_19
*533 PHY_EDGE_ROW_0_Right_0
*534 PHY_EDGE_ROW_10_Left_29
*535 PHY_EDGE_ROW_10_Right_10
*536 PHY_EDGE_ROW_11_Left_30
*537 PHY_EDGE_ROW_11_Right_11
*538 PHY_EDGE_ROW_12_Left_31
*539 PHY_EDGE_ROW_12_Right_12
*540 PHY_EDGE_ROW_13_Left_32
*541 PHY_EDGE_ROW_13_Right_13
*542 PHY_EDGE_ROW_14_Left_33
*543 PHY_EDGE_ROW_14_Right_14
*544 PHY_EDGE_ROW_15_Left_34
*545 PHY_EDGE_ROW_15_Right_15
*546 PHY_EDGE_ROW_16_Left_35
*547 PHY_EDGE_ROW_16_Right_16
*548 PHY_EDGE_ROW_17_Left_36
*549 PHY_EDGE_ROW_17_Right_17
*550 PHY_EDGE_ROW_18_Left_37
*551 PHY_EDGE_ROW_18_Right_18
*552 PHY_EDGE_ROW_1_Left_20
*553 PHY_EDGE_ROW_1_Right_1
*554 PHY_EDGE_ROW_2_Left_21
*555 PHY_EDGE_ROW_2_Right_2
*556 PHY_EDGE_ROW_3_Left_22
*557 PHY_EDGE_ROW_3_Right_3
*558 PHY_EDGE_ROW_4_Left_23
*559 PHY_EDGE_ROW_4_Right_4
*560 PHY_EDGE_ROW_5_Left_24
*561 PHY_EDGE_ROW_5_Right_5
*562 PHY_EDGE_ROW_6_Left_25
*563 PHY_EDGE_ROW_6_Right_6
*564 PHY_EDGE_ROW_7_Left_26
*565 PHY_EDGE_ROW_7_Right_7
*566 PHY_EDGE_ROW_8_Left_27
*567 PHY_EDGE_ROW_8_Right_8
*568 PHY_EDGE_ROW_9_Left_28
*569 PHY_EDGE_ROW_9_Right_9
*570 TAP_TAPCELL_ROW_0_38
*571 TAP_TAPCELL_ROW_0_39
*572 TAP_TAPCELL_ROW_0_40
*573 TAP_TAPCELL_ROW_0_41
*574 TAP_TAPCELL_ROW_10_60
*575 TAP_TAPCELL_ROW_10_61
*576 TAP_TAPCELL_ROW_11_62
*577 TAP_TAPCELL_ROW_11_63
*578 TAP_TAPCELL_ROW_12_64
*579 TAP_TAPCELL_ROW_12_65
*580 TAP_TAPCELL_ROW_13_66
*581 TAP_TAPCELL_ROW_13_67
*582 TAP_TAPCELL_ROW_14_68
*583 TAP_TAPCELL_ROW_14_69
*584 TAP_TAPCELL_ROW_15_70
*585 TAP_TAPCELL_ROW_15_71
*586 TAP_TAPCELL_ROW_16_72
*587 TAP_TAPCELL_ROW_16_73
*588 TAP_TAPCELL_ROW_17_74
*589 TAP_TAPCELL_ROW_17_75
*590 TAP_TAPCELL_ROW_18_76
*591 TAP_TAPCELL_ROW_18_77
*592 TAP_TAPCELL_ROW_18_78
*593 TAP_TAPCELL_ROW_18_79
*594 TAP_TAPCELL_ROW_1_42
*595 TAP_TAPCELL_ROW_1_43
*596 TAP_TAPCELL_ROW_2_44
*597 TAP_TAPCELL_ROW_2_45
*598 TAP_TAPCELL_ROW_3_46
*599 TAP_TAPCELL_ROW_3_47
*600 TAP_TAPCELL_ROW_4_48
*601 TAP_TAPCELL_ROW_4_49
*602 TAP_TAPCELL_ROW_5_50
*603 TAP_TAPCELL_ROW_5_51
*604 TAP_TAPCELL_ROW_6_52
*605 TAP_TAPCELL_ROW_6_53
*606 TAP_TAPCELL_ROW_7_54
*607 TAP_TAPCELL_ROW_7_55
*608 TAP_TAPCELL_ROW_8_56
*609 TAP_TAPCELL_ROW_8_57
*610 TAP_TAPCELL_ROW_9_58
*611 TAP_TAPCELL_ROW_9_59
*612 _124_
*613 _125_
*614 _126_
*615 _127_
*616 _128_
*617 _129_
*618 _130_
*619 _131_
*620 _132_
*621 _133_
*622 _134_
*623 _135_
*624 _136_
*625 _137_
*626 _138_
*627 _139_
*628 _140_
*629 _141_
*630 _142_
*631 _143_
*632 _144_
*633 _145_
*634 _146_
*635 _147_
*636 _148_
*637 _149_
*638 _150_
*639 _151_
*640 _152_
*641 _153_
*642 _154_
*643 _155_
*644 _156_
*645 _157_
*646 _158_
*647 _159_
*648 _160_
*649 _161_
*650 _162_
*651 _163_
*652 _164_
*653 _165_
*654 _166_
*655 _167_
*656 _168_
*657 _169_
*658 _170_
*659 _171_
*660 _172_
*661 _173_
*662 _174_
*663 _175_
*664 _176_
*665 _177_
*666 _178_
*667 _179_
*668 _180_
*669 _181_
*670 _182_
*671 _183_
*672 _184_
*673 _185_
*674 _186_
*675 _187_
*676 _188_
*677 _189_
*678 _190_
*679 _191_
*680 _192_
*681 _193_
*682 _194_
*683 _195_
*684 _196_
*685 _197_
*686 _198_
*687 _199_
*688 _200_
*689 _201_
*690 _202_
*691 _203_
*692 _204_
*693 _205_
*694 _206_
*695 _207_
*696 _208_
*697 _209_
*698 _210_
*699 _211_
*700 _212_
*701 _213_
*702 _214_
*703 _215_
*704 _216_
*705 _217_
*706 _218_
*707 _219_
*708 _220_
*709 _221_
*710 _222_
*711 _223_
*712 _224_
*713 _225_
*714 _226_
*715 _227_
*716 _228_
*717 _229_
*718 _230_
*719 _231_
*720 _232_
*721 _233_
*722 _234_
*723 _235_
*724 _236_
*725 _237_
*726 _238_
*727 _239_
*728 _240_
*729 _241_
*730 _242_
*731 _243_
*732 _244_
*733 _245_
*734 _246_
*735 _247_
*736 _248_
*737 _249_
*738 _250_
*739 _251_
*740 _252_
*741 _253_
*742 _254_
*743 _255_
*744 _256_
*745 fanout33
*746 fanout34
*747 input1
*748 input10
*749 input11
*750 input12
*751 input13
*752 input14
*753 input15
*754 input16
*755 input17
*756 input18
*757 input19
*758 input2
*759 input3
*760 input4
*761 input5
*762 input6
*763 input7
*764 input8
*765 input9
*766 max_cap29
*767 max_cap30
*768 max_cap32
*769 output20
*770 output21
*771 output22
*772 output23
*773 output24
*774 output25
*775 output26
*776 output27
*777 output28
*778 wire31

*PORTS
A[0] I
A[1] I
A[2] I
A[3] I
A[4] I
A[5] I
A[6] I
A[7] I
B[0] I
B[1] I
B[2] I
B[3] I
B[4] I
B[5] I
B[6] I
B[7] I
CARRY O
OP[0] I
OP[1] I
OP[2] I
Y[0] O
Y[1] O
Y[2] O
Y[3] O
Y[4] O
Y[5] O
Y[6] O
Y[7] O

*D_NET *1 0.00220863
*CONN
*P A[0] I
*I *747:A I *D sky130_fd_sc_hd__clkdlybuf4s25_1
*CAP
1 A[0] 0.000640765
2 *747:A 0
3 *1:15 0.000640765
4 *1:15 Y[0] 0.000398277
5 *1:15 *614:C1 5.82853e-05
6 *1:15 *765:A 0.000324031
7 *1:15 *131:18 0
8 *1:15 *143:16 5.5792e-05
9 *1:15 *155:93 7.78333e-05
10 *1:15 *188:29 1.28818e-05
*RES
1 A[0] *1:15 34.3537 
2 *1:15 *747:A 23 
*END

*D_NET *2 0.00159615
*CONN
*P A[1] I
*I *758:A I *D sky130_fd_sc_hd__clkdlybuf4s25_1
*CAP
1 A[1] 0.000542411
2 *758:A 0
3 *2:9 0.000542411
4 *2:9 *10:9 0.000511329
*RES
1 A[1] *2:9 29.9557 
2 *2:9 *758:A 23 
*END

*D_NET *3 0.00122849
*CONN
*P A[2] I
*I *759:A I *D sky130_fd_sc_hd__clkdlybuf4s25_1
*CAP
1 A[2] 0.000614246
2 *759:A 0
3 *3:9 0.000614246
*RES
1 A[2] *3:9 28.05 
2 *3:9 *759:A 23 
*END

*D_NET *4 0.000884389
*CONN
*P A[3] I
*I *760:A I *D sky130_fd_sc_hd__clkdlybuf4s25_1
*CAP
1 A[3] 0.000338069
2 *760:A 0.000338069
3 *760:A Y[3] 0.000208251
*RES
1 A[3] *760:A 48.3843 
*END

*D_NET *5 0.000986695
*CONN
*P A[4] I
*I *761:A I *D sky130_fd_sc_hd__clkdlybuf4s25_1
*CAP
1 A[4] 0.000493347
2 *761:A 0.000493347
3 *761:A Y[4] 0
4 *761:A *750:A 0
*RES
1 A[4] *761:A 49.7929 
*END

*D_NET *6 0.000868015
*CONN
*P A[5] I
*I *762:A I *D sky130_fd_sc_hd__clkdlybuf4s25_1
*CAP
1 A[5] 0.000330376
2 *762:A 0.000330376
3 *762:A Y[5] 0.000207264
4 *762:A *13:11 0
5 *762:A *123:8 0
*RES
1 A[5] *762:A 48.3843 
*END

*D_NET *7 0.00161421
*CONN
*P A[6] I
*I *763:A I *D sky130_fd_sc_hd__clkdlybuf4s25_1
*CAP
1 A[6] 0.000761096
2 *763:A 0
3 *7:11 0.000761096
4 *7:11 *15:9 5.67058e-05
5 *7:11 *186:10 3.53115e-05
*RES
1 A[6] *7:11 31.9546 
2 *7:11 *763:A 23 
*END

*D_NET *8 0.00096615
*CONN
*P A[7] I
*I *764:A I *D sky130_fd_sc_hd__clkdlybuf4s25_1
*CAP
1 A[7] 0.000379041
2 *764:A 0
3 *8:13 0.000379041
4 *8:13 *16:11 0.000208068
*RES
1 A[7] *8:13 28.2072 
2 *8:13 *764:A 23 
*END

*D_NET *9 0.00170746
*CONN
*P B[0] I
*I *765:A I *D sky130_fd_sc_hd__clkdlybuf4s25_1
*CAP
1 B[0] 0.000618973
2 *765:A 0.000618973
3 *765:A Y[0] 8.06278e-06
4 *765:A Y[1] 0
5 *765:A *131:18 7.43456e-05
6 *765:A *188:29 6.30761e-05
7 *1:15 *765:A 0.000324031
*RES
1 B[0] *765:A 49.0152 
*END

*D_NET *10 0.00139412
*CONN
*P B[1] I
*I *748:A I *D sky130_fd_sc_hd__clkdlybuf4s25_1
*CAP
1 B[1] 0.000431655
2 *748:A 0
3 *10:9 0.000431655
4 *10:9 *166:10 1.94812e-05
5 *2:9 *10:9 0.000511329
*RES
1 B[1] *10:9 28.05 
2 *10:9 *748:A 23 
*END

*D_NET *11 0.00119906
*CONN
*P B[2] I
*I *749:A I *D sky130_fd_sc_hd__clkdlybuf4s25_1
*CAP
1 B[2] 0.000593809
2 *749:A 0
3 *11:11 0.000593809
4 *11:11 Y[2] 0
5 *11:11 *170:10 1.14452e-05
*RES
1 B[2] *11:11 28.195 
2 *11:11 *749:A 23 
*END

*D_NET *12 0.000892879
*CONN
*P B[3] I
*I *750:A I *D sky130_fd_sc_hd__clkdlybuf4s25_1
*CAP
1 B[3] 0.000353651
2 *750:A 0.000353651
3 *750:A Y[3] 0.000185578
4 *761:A *750:A 0
*RES
1 B[3] *750:A 48.3843 
*END

*D_NET *13 0.00113474
*CONN
*P B[4] I
*I *751:A I *D sky130_fd_sc_hd__clkdlybuf4s25_1
*CAP
1 B[4] 0.000567372
2 *751:A 0
3 *13:11 0.000567372
4 *13:11 Y[4] 0
5 *13:11 Y[5] 0
6 *13:11 *184:23 0
7 *762:A *13:11 0
*RES
1 B[4] *13:11 27.3167 
2 *13:11 *751:A 23 
*END

*D_NET *14 0.000982482
*CONN
*P B[5] I
*I *752:A I *D sky130_fd_sc_hd__clkdlybuf4s25_1
*CAP
1 B[5] 0.000491241
2 *752:A 0.000491241
3 *752:A Y[5] 0
4 *752:A *160:14 0
*RES
1 B[5] *752:A 48.9082 
*END

*D_NET *15 0.00173296
*CONN
*P B[6] I
*I *753:A I *D sky130_fd_sc_hd__clkdlybuf4s25_1
*CAP
1 B[6] 0.000798681
2 *753:A 0
3 *15:9 0.000798681
4 *15:9 *186:10 7.88926e-05
5 *7:11 *15:9 5.67058e-05
*RES
1 B[6] *15:9 32.7625 
2 *15:9 *753:A 23 
*END

*D_NET *16 0.00153016
*CONN
*P B[7] I
*I *754:A I *D sky130_fd_sc_hd__clkdlybuf4s25_1
*CAP
1 B[7] 0.000577265
2 *754:A 0
3 *16:11 0.000577265
4 *16:11 CARRY 0
5 *16:11 *744:B2 0
6 *16:11 *162:8 0
7 *16:11 *167:10 0.000167562
8 *8:13 *16:11 0.000208068
*RES
1 B[7] *16:11 29.554 
2 *16:11 *754:A 23 
*END

*D_NET *17 0.00134847
*CONN
*P CARRY O
*I *769:X O *D sky130_fd_sc_hd__dlymetal6s2s_1
*CAP
1 CARRY 0.000450606
2 *769:X 0.000150115
3 *17:10 0.00060072
4 *17:10 *778:A 0
5 *17:10 *167:10 0.000147025
6 *16:11 CARRY 0
*RES
1 *769:X *17:10 49.8425 
2 *17:10 CARRY 1.56053 
*END

*D_NET *18 0.00180647
*CONN
*P OP[0] I
*I *755:A I *D sky130_fd_sc_hd__clkdlybuf4s25_1
*CAP
1 OP[0] 0.000641021
2 *755:A 0
3 *18:11 0.000641021
4 *18:11 *744:B2 0
5 *18:11 *19:13 5.28502e-05
6 *18:11 *20:15 0.000307031
7 *18:11 *89:8 5.86165e-05
8 *18:11 *141:8 0
9 *18:11 *165:20 0.000105932
*RES
1 OP[0] *18:11 32.7233 
2 *18:11 *755:A 23 
*END

*D_NET *19 0.00132639
*CONN
*P OP[1] I
*I *756:A I *D sky130_fd_sc_hd__clkdlybuf4s25_1
*CAP
1 OP[1] 0.000564941
2 *756:A 0
3 *19:13 0.000564941
4 *19:13 *20:15 0.000143655
5 *18:11 *19:13 5.28502e-05
*RES
1 OP[1] *19:13 34.072 
2 *19:13 *756:A 23 
*END

*D_NET *20 0.00173769
*CONN
*P OP[2] I
*I *757:A I *D sky130_fd_sc_hd__clkdlybuf4s25_1
*CAP
1 OP[2] 0.000643501
2 *757:A 0
3 *20:15 0.000643501
4 *20:15 *143:16 0
5 *18:11 *20:15 0.000307031
6 *19:13 *20:15 0.000143655
*RES
1 OP[2] *20:15 31.3057 
2 *20:15 *757:A 23 
*END

*D_NET *23 0.00111778
*CONN
*P Y[0] O
*I *770:X O *D sky130_fd_sc_hd__clkdlybuf4s25_1
*CAP
1 Y[0] 0.000355722
2 *770:X 0.000355722
3 Y[0] *131:18 0
4 *765:A Y[0] 8.06278e-06
5 *1:15 Y[0] 0.000398277
*RES
1 *770:X Y[0] 48.8639 
*END

*D_NET *24 0.000814268
*CONN
*P Y[1] O
*I *771:X O *D sky130_fd_sc_hd__clkdlybuf4s25_1
*CAP
1 Y[1] 6.0611e-05
2 *771:X 0.000346523
3 *24:10 0.000407134
4 *765:A Y[1] 0
*RES
1 *771:X *24:10 44.6596 
2 *24:10 Y[1] 8.18667 
*END

*D_NET *25 0.00119094
*CONN
*P Y[2] O
*I *772:X O *D sky130_fd_sc_hd__clkdlybuf4s25_1
*CAP
1 Y[2] 0.000540925
2 *772:X 5.45426e-05
3 *25:8 0.000595468
4 *11:11 Y[2] 0
*RES
1 *772:X *25:8 38.6214 
2 *25:8 Y[2] 11.7243 
*END

*D_NET *26 0.000992453
*CONN
*P Y[3] O
*I *773:X O *D sky130_fd_sc_hd__clkdlybuf4s25_1
*CAP
1 Y[3] 0.000299312
2 *773:X 0.000299312
3 *750:A Y[3] 0.000185578
4 *760:A Y[3] 0.000208251
*RES
1 *773:X Y[3] 47.8517 
*END

*D_NET *27 0.000865858
*CONN
*P Y[4] O
*I *774:X O *D sky130_fd_sc_hd__clkdlybuf4s25_1
*CAP
1 Y[4] 0.000432929
2 *774:X 0.000432929
3 Y[4] *184:10 0
4 *761:A Y[4] 0
5 *13:11 Y[4] 0
*RES
1 *774:X Y[4] 47.8517 
*END

*D_NET *28 0.000932761
*CONN
*P Y[5] O
*I *775:X O *D sky130_fd_sc_hd__clkdlybuf4s25_1
*CAP
1 Y[5] 0.000362749
2 *775:X 0.000362749
3 Y[5] *185:59 0
4 *752:A Y[5] 0
5 *762:A Y[5] 0.000207264
6 *13:11 Y[5] 0
*RES
1 *775:X Y[5] 47.8517 
*END

*D_NET *29 0.00139618
*CONN
*P Y[6] O
*I *776:X O *D sky130_fd_sc_hd__clkdlybuf4s25_1
*CAP
1 Y[6] 0.000648418
2 *776:X 4.96719e-05
3 *29:8 0.00069809
*RES
1 *776:X *29:8 38.6214 
2 *29:8 Y[6] 14.1789 
*END

*D_NET *30 0.00174162
*CONN
*P Y[7] O
*I *777:X O *D sky130_fd_sc_hd__clkbuf_2
*CAP
1 Y[7] 0.000663814
2 *777:X 0.000206998
3 *30:8 0.000870812
*RES
1 *777:X *30:8 41.48 
2 *30:8 Y[7] 14.5311 
*END

*D_NET *31 0.00834933
*CONN
*I *663:B I *D sky130_fd_sc_hd__nor2_2
*I *636:B I *D sky130_fd_sc_hd__nor2_2
*I *627:B I *D sky130_fd_sc_hd__nor2_2
*I *626:A I *D sky130_fd_sc_hd__inv_2
*I *625:X O *D sky130_fd_sc_hd__or3b_2
*CAP
1 *663:B 0
2 *636:B 0
3 *627:B 0.000436022
4 *626:A 0
5 *625:X 0.00035253
6 *31:41 0.00072571
7 *31:31 0.00115965
8 *31:23 0.00117954
9 *31:8 0.000662116
10 *627:B *629:A2_N 0
11 *627:B *637:A1 0.000534442
12 *627:B *638:A2 0.000269781
13 *627:B *148:37 0.000284343
14 *627:B *155:61 6.72022e-05
15 *627:B *166:55 0.000109928
16 *627:B *166:68 7.78521e-05
17 *31:8 *625:C_N 5.68958e-05
18 *31:8 *768:A 2.64616e-05
19 *31:8 *32:8 0.000100069
20 *31:8 *180:20 1.08287e-05
21 *31:8 *180:56 2.3991e-05
22 *31:23 *65:10 3.22879e-05
23 *31:23 *67:10 7.88416e-05
24 *31:23 *149:10 4.7869e-05
25 *31:23 *149:76 3.16784e-05
26 *31:23 *149:118 2.9938e-05
27 *31:23 *151:74 0
28 *31:23 *180:56 0.000128223
29 *31:23 *184:80 0.000243047
30 *31:31 *637:A2 0.000260441
31 *31:31 *638:B2 0
32 *31:31 *648:B2 0
33 *31:31 *65:10 1.76557e-05
34 *31:31 *99:24 2.53761e-05
35 *31:31 *110:43 4.21594e-06
36 *31:31 *146:76 0.000236537
37 *31:31 *149:118 9.24795e-06
38 *31:31 *151:40 0.000552197
39 *31:31 *184:80 0
40 *31:41 *637:A2 0
41 *31:41 *638:A2 0.000136738
42 *31:41 *41:10 0
43 *31:41 *42:10 9.5877e-05
44 *31:41 *109:22 0
45 *31:41 *110:43 1.69771e-05
46 *31:41 *111:14 2.49836e-05
47 *31:41 *149:47 0.000110913
48 *31:41 *177:41 0.000188926
*RES
1 *625:X *31:8 28.2821 
2 *31:8 *626:A 23 
3 *31:8 *31:23 38.3686 
4 *31:23 *31:31 33.7671 
5 *31:31 *31:41 35.9864 
6 *31:41 *627:B 49.6207 
7 *31:31 *636:B 38 
8 *31:23 *663:B 23 
*END

*D_NET *32 0.00636503
*CONN
*I *683:B1 I *D sky130_fd_sc_hd__a2bb2o_2
*I *677:A2 I *D sky130_fd_sc_hd__a211o_2
*I *656:B1 I *D sky130_fd_sc_hd__a22o_2
*I *626:Y O *D sky130_fd_sc_hd__inv_2
*CAP
1 *683:B1 0.000421214
2 *677:A2 0
3 *656:B1 1.5769e-05
4 *626:Y 2.37925e-05
5 *32:29 0.00051441
6 *32:16 0.00185718
7 *32:8 0.001772
8 *656:B1 *176:35 2.26406e-05
9 *683:B1 *675:A1 9.58714e-05
10 *683:B1 *682:B1 5.3304e-05
11 *683:B1 *91:40 7.53384e-06
12 *683:B1 *141:65 0.000108681
13 *683:B1 *146:107 1.03836e-05
14 *683:B1 *151:74 0.000127272
15 *683:B1 *176:10 5.31444e-05
16 *683:B1 *184:80 0
17 *32:8 *180:56 3.66555e-05
18 *32:16 *151:74 2.47015e-05
19 *32:29 *740:A3 0.000155077
20 *32:29 *77:10 4.23817e-05
21 *32:29 *96:10 0
22 *32:29 *119:94 0
23 *32:29 *137:10 0.000604008
24 *32:29 *138:10 0
25 *32:29 *176:20 0
26 *32:29 *176:35 0.000318945
27 *31:8 *32:8 0.000100069
*RES
1 *626:Y *32:8 39.0979 
2 *32:8 *32:16 18.8672 
3 *32:16 *656:B1 38.3211 
4 *32:16 *32:29 28.7025 
5 *32:29 *677:A2 23 
6 *32:8 *683:B1 46.6379 
*END

*D_NET *33 0.000954981
*CONN
*I *628:C1 I *D sky130_fd_sc_hd__a221o_2
*I *627:Y O *D sky130_fd_sc_hd__nor2_2
*CAP
1 *628:C1 0
2 *627:Y 0.000226511
3 *33:10 0.000226511
4 *33:10 *628:B2 8.92738e-05
5 *33:10 *34:10 0.000162776
6 *33:10 *142:10 0.000193203
7 *33:10 *155:61 5.67058e-05
8 *33:10 *166:55 0
*RES
1 *627:Y *33:10 43.6964 
2 *33:10 *628:C1 38 
*END

*D_NET *34 0.00113637
*CONN
*I *632:A1 I *D sky130_fd_sc_hd__o22a_2
*I *628:X O *D sky130_fd_sc_hd__a221o_2
*CAP
1 *632:A1 0
2 *628:X 0.000436793
3 *34:10 0.000436793
4 *34:10 *628:A1 2.64616e-05
5 *34:10 *628:A2 2.6595e-05
6 *34:10 *628:B2 8.48502e-06
7 *34:10 *37:10 0
8 *34:10 *154:12 2.66596e-05
9 *34:10 *154:23 1.1804e-05
10 *33:10 *34:10 0.000162776
*RES
1 *628:X *34:10 44.2143 
2 *34:10 *632:A1 38 
*END

*D_NET *35 0.000428548
*CONN
*I *630:C1 I *D sky130_fd_sc_hd__a2111o_2
*I *629:X O *D sky130_fd_sc_hd__a2bb2o_2
*CAP
1 *630:C1 0
2 *629:X 0.00017054
3 *35:10 0.00017054
4 *35:10 *637:A1 1.27948e-05
5 *35:10 *155:44 4.83778e-05
6 *35:10 *166:68 2.62943e-05
*RES
1 *629:X *35:10 41.0036 
2 *35:10 *630:C1 38 
*END

*D_NET *36 0.000363704
*CONN
*I *632:A2 I *D sky130_fd_sc_hd__o22a_2
*I *630:X O *D sky130_fd_sc_hd__a2111o_2
*CAP
1 *632:A2 9.17428e-05
2 *630:X 9.17428e-05
3 *632:A2 *632:B2 0.000138444
4 *632:A2 *142:25 4.17736e-05
*RES
1 *630:X *632:A2 48.0507 
*END

*D_NET *37 0.000571717
*CONN
*I *632:B1 I *D sky130_fd_sc_hd__o22a_2
*I *631:X O *D sky130_fd_sc_hd__xor2_2
*CAP
1 *632:B1 0
2 *631:X 0.000208276
3 *37:10 0.000208276
4 *37:10 *732:B 4.6834e-05
5 *37:10 *166:55 0.000108331
6 *34:10 *37:10 0
*RES
1 *631:X *37:10 42.5364 
2 *37:10 *632:B1 38 
*END

*D_NET *38 0.000621524
*CONN
*I *640:A2 I *D sky130_fd_sc_hd__o22a_2
*I *633:Y O *D sky130_fd_sc_hd__xnor2_2
*CAP
1 *640:A2 0.000106343
2 *633:Y 0.000106343
3 *640:A2 *44:8 5.70419e-05
4 *640:A2 *108:8 0.000309734
5 *640:A2 *170:10 4.2062e-05
*RES
1 *633:Y *640:A2 49.48 
*END

*D_NET *39 0.000791221
*CONN
*I *639:A2 I *D sky130_fd_sc_hd__a211o_2
*I *634:X O *D sky130_fd_sc_hd__o21a_2
*CAP
1 *639:A2 0
2 *634:X 0.000278201
3 *39:10 0.000278201
4 *39:10 *43:10 4.21594e-06
5 *39:10 *108:12 0
6 *39:10 *113:8 0.000230604
7 *39:10 *170:10 0
*RES
1 *634:X *39:10 42.4329 
2 *39:10 *639:A2 38 
*END

*D_NET *40 0.000274869
*CONN
*I *637:C1 I *D sky130_fd_sc_hd__a221o_2
*I *635:Y O *D sky130_fd_sc_hd__nor2_2
*CAP
1 *637:C1 0
2 *635:Y 8.32823e-05
3 *40:8 8.32823e-05
4 *40:8 *637:B1 4.06408e-05
5 *40:8 *110:24 6.07611e-06
6 *40:8 *148:27 6.15872e-05
*RES
1 *635:Y *40:8 39.9057 
2 *40:8 *637:C1 38 
*END

*D_NET *41 0.000618049
*CONN
*I *638:C1 I *D sky130_fd_sc_hd__a221o_2
*I *636:Y O *D sky130_fd_sc_hd__nor2_2
*CAP
1 *638:C1 0
2 *636:Y 0.000130546
3 *41:10 0.000130546
4 *41:10 *638:B2 7.81073e-05
5 *41:10 *110:43 0.000133316
6 *41:10 *111:8 4.9662e-05
7 *41:10 *177:71 9.58714e-05
8 *31:41 *41:10 0
*RES
1 *636:Y *41:10 41.3557 
2 *41:10 *638:C1 38 
*END

*D_NET *42 0.00148518
*CONN
*I *640:B1 I *D sky130_fd_sc_hd__o22a_2
*I *637:X O *D sky130_fd_sc_hd__a221o_2
*CAP
1 *640:B1 0
2 *637:X 0.000485379
3 *42:10 0.000485379
4 *42:10 *638:A2 0.000164191
5 *42:10 *109:22 0.000160182
6 *42:10 *133:14 9.41704e-05
7 *31:41 *42:10 9.5877e-05
*RES
1 *637:X *42:10 45.6436 
2 *42:10 *640:B1 38 
*END

*D_NET *43 0.00152384
*CONN
*I *639:B1 I *D sky130_fd_sc_hd__a211o_2
*I *638:X O *D sky130_fd_sc_hd__a221o_2
*CAP
1 *639:B1 0
2 *638:X 0.000494503
3 *43:10 0.000494503
4 *43:10 *640:A1 0
5 *43:10 *641:B 0.000128723
6 *43:10 *133:14 0.000401899
7 *43:10 *176:64 0
8 *39:10 *43:10 4.21594e-06
*RES
1 *638:X *43:10 46.12 
2 *43:10 *639:B1 38 
*END

*D_NET *44 0.000565932
*CONN
*I *640:B2 I *D sky130_fd_sc_hd__o22a_2
*I *639:X O *D sky130_fd_sc_hd__a211o_2
*CAP
1 *640:B2 0
2 *639:X 0.000195259
3 *44:8 0.000195259
4 *44:8 *108:8 0.000105934
5 *44:8 *170:10 1.24376e-05
6 *640:A2 *44:8 5.70419e-05
*RES
1 *639:X *44:8 27.4536 
2 *44:8 *640:B2 23 
*END

*D_NET *45 0.000835815
*CONN
*I *651:A2_N I *D sky130_fd_sc_hd__o2bb2a_2
*I *641:Y O *D sky130_fd_sc_hd__xnor2_2
*CAP
1 *651:A2_N 0
2 *641:Y 0.000282953
3 *45:10 0.000282953
4 *45:10 *641:A 3.22879e-05
5 *45:10 *130:17 0.000139102
6 *45:10 *130:21 7.03766e-05
7 *45:10 *176:54 2.81425e-05
8 *45:10 *176:64 0
*RES
1 *641:Y *45:10 44.4007 
2 *45:10 *651:A2_N 38 
*END

*D_NET *46 0.00120228
*CONN
*I *650:A2 I *D sky130_fd_sc_hd__a31o_2
*I *642:X O *D sky130_fd_sc_hd__or2_2
*CAP
1 *650:A2 0
2 *642:X 0.00022368
3 *46:10 0.00022368
4 *46:10 *701:A_N 7.86431e-05
5 *46:10 *102:8 5.56306e-05
6 *46:10 *115:8 0.00045507
7 *46:10 *158:64 0
8 *46:10 *183:12 0.000165575
*RES
1 *642:X *46:10 44.7529 
2 *46:10 *650:A2 38 
*END

*D_NET *47 0.000716024
*CONN
*I *650:A3 I *D sky130_fd_sc_hd__a31o_2
*I *643:Y O *D sky130_fd_sc_hd__nand2_2
*CAP
1 *650:A3 2.32701e-05
2 *643:Y 8.13803e-05
3 *47:8 0.00010465
4 *650:A3 *171:10 5.3304e-05
5 *650:A3 *183:22 5.3304e-05
6 *47:8 *102:30 0.000162263
7 *47:8 *115:8 0.00021788
8 *47:8 *130:17 1.99722e-05
*RES
1 *643:Y *47:8 40.9621 
2 *47:8 *650:A3 38.6214 
*END

*D_NET *48 0.000505345
*CONN
*I *647:B2 I *D sky130_fd_sc_hd__a221o_2
*I *644:X O *D sky130_fd_sc_hd__or2_2
*CAP
1 *647:B2 4.73895e-06
2 *644:X 0.000154904
3 *48:10 0.000159643
4 *647:B2 *647:A2 6.39489e-06
5 *647:B2 *183:30 1.40856e-05
6 *48:10 *644:B 5.45652e-05
7 *48:10 *53:10 5.5792e-05
8 *48:10 *130:51 1.84831e-05
9 *48:10 *154:44 3.67392e-05
*RES
1 *644:X *48:10 40.8793 
2 *48:10 *647:B2 38.1502 
*END

*D_NET *49 0.000555285
*CONN
*I *647:C1 I *D sky130_fd_sc_hd__a221o_2
*I *645:Y O *D sky130_fd_sc_hd__nor2_2
*CAP
1 *647:C1 0.000123008
2 *645:Y 0.000123008
3 *647:C1 *647:A2 0.000186038
4 *647:C1 *183:30 0.000123231
*RES
1 *645:Y *647:C1 49.5214 
*END

*D_NET *50 0.00154117
*CONN
*I *649:C_N I *D sky130_fd_sc_hd__or3b_2
*I *646:X O *D sky130_fd_sc_hd__or3_2
*CAP
1 *649:C_N 0.000141638
2 *646:X 8.19334e-05
3 *50:8 0.000223571
4 *649:C_N *649:A 0.000406869
5 *649:C_N *53:10 3.46216e-05
6 *649:C_N *130:51 0.000405224
7 *649:C_N *148:23 9.59004e-05
8 *50:8 *628:A2 0.000140036
9 *50:8 *646:B 1.13812e-05
*RES
1 *646:X *50:8 39.9057 
2 *50:8 *649:C_N 44.3386 
*END

*D_NET *51 0.00169561
*CONN
*I *651:B1 I *D sky130_fd_sc_hd__o2bb2a_2
*I *647:X O *D sky130_fd_sc_hd__a221o_2
*CAP
1 *651:B1 0
2 *647:X 0.000461332
3 *51:8 0.000461332
4 *51:8 *176:64 5.45644e-05
5 *51:8 *183:22 4.21362e-05
6 *51:8 *183:26 0.000676249
*RES
1 *647:X *51:8 33.1707 
2 *51:8 *651:B1 23 
*END

*D_NET *52 0.000191365
*CONN
*I *649:B I *D sky130_fd_sc_hd__or3b_2
*I *648:X O *D sky130_fd_sc_hd__a32o_2
*CAP
1 *649:B 0
2 *648:X 5.17394e-05
3 *52:8 5.17394e-05
4 *52:8 *149:12 8.78864e-05
*RES
1 *648:X *52:8 39.2014 
2 *52:8 *649:B 38 
*END

*D_NET *53 0.00498885
*CONN
*I *650:B1 I *D sky130_fd_sc_hd__a31o_2
*I *649:X O *D sky130_fd_sc_hd__or3b_2
*CAP
1 *650:B1 0
2 *649:X 0.00159685
3 *53:16 0.000104865
4 *53:10 0.00170172
5 *53:10 *644:B 5.58003e-05
6 *53:10 *701:A_N 5.3304e-05
7 *53:10 *735:A1 0.000559895
8 *53:10 *130:6 4.33627e-05
9 *53:10 *130:51 7.04464e-05
10 *53:10 *158:16 6.17437e-06
11 *53:10 *158:48 0.000571193
12 *53:16 *701:A_N 2.37148e-05
13 *53:16 *179:72 0.000111106
14 *649:C_N *53:10 3.46216e-05
15 *48:10 *53:10 5.5792e-05
*RES
1 *649:X *53:10 48.085 
2 *53:10 *53:16 32.2579 
3 *53:16 *650:B1 23 
*END

*D_NET *54 0.000659809
*CONN
*I *651:B2 I *D sky130_fd_sc_hd__o2bb2a_2
*I *650:X O *D sky130_fd_sc_hd__a31o_2
*CAP
1 *651:B2 0.00020192
2 *650:X 0.00020192
3 *651:B2 *651:A1_N 4.73829e-05
4 *651:B2 *176:64 5.76359e-05
5 *651:B2 *183:22 0.00015095
*RES
1 *650:X *651:B2 49.9564 
*END

*D_NET *55 0.000563583
*CONN
*I *653:B I *D sky130_fd_sc_hd__and3b_2
*I *652:Y O *D sky130_fd_sc_hd__nand2_2
*CAP
1 *653:B 0
2 *652:Y 0.000104618
3 *55:10 0.000104618
4 *55:10 *723:C_N 5.5792e-05
5 *55:10 *122:8 1.47795e-05
6 *55:10 *122:10 0.000141888
7 *55:10 *179:72 0.000141888
*RES
1 *652:Y *55:10 41.0036 
2 *55:10 *653:B 38 
*END

*D_NET *56 0.0034794
*CONN
*I *660:A1 I *D sky130_fd_sc_hd__o41a_2
*I *653:X O *D sky130_fd_sc_hd__and3b_2
*CAP
1 *660:A1 0
2 *653:X 0.000680158
3 *56:14 0.000680158
4 *56:14 *653:C 1.53367e-05
5 *56:14 *719:A 6.2339e-05
6 *56:14 *736:A 0.000445374
7 *56:14 *736:B 5.50106e-05
8 *56:14 *119:63 4.17736e-05
9 *56:14 *120:8 4.34973e-05
10 *56:14 *172:8 0.00115258
11 *56:14 *184:59 0.00030317
*RES
1 *653:X *56:14 42.7614 
2 *56:14 *660:A1 23 
*END

*D_NET *57 0.000329306
*CONN
*I *660:A2 I *D sky130_fd_sc_hd__o41a_2
*I *654:X O *D sky130_fd_sc_hd__and2b_2
*CAP
1 *660:A2 0
2 *654:X 0.00010369
3 *57:10 0.00010369
4 *57:10 *58:10 8.62876e-05
5 *57:10 *154:63 3.5638e-05
6 *57:10 *184:59 0
*RES
1 *654:X *57:10 39.8229 
2 *57:10 *660:A2 38 
*END

*D_NET *58 0.00108047
*CONN
*I *660:A3 I *D sky130_fd_sc_hd__o41a_2
*I *655:X O *D sky130_fd_sc_hd__a2bb2o_2
*CAP
1 *660:A3 0
2 *655:X 0.000404611
3 *58:10 0.000404611
4 *58:10 *658:A 0
5 *58:10 *62:10 4.08641e-05
6 *58:10 *142:40 3.13952e-05
7 *58:10 *154:63 7.55134e-05
8 *58:10 *184:59 3.71887e-05
9 *57:10 *58:10 8.62876e-05
*RES
1 *655:X *58:10 44.4421 
2 *58:10 *660:A3 38 
*END

*D_NET *59 0.000630426
*CONN
*I *657:B1 I *D sky130_fd_sc_hd__a211o_2
*I *656:X O *D sky130_fd_sc_hd__a22o_2
*CAP
1 *657:B1 0
2 *656:X 0.000212109
3 *59:10 0.000212109
4 *59:10 *656:A1 2.45549e-06
5 *59:10 *656:A2 3.18571e-05
6 *59:10 *657:C1 0.000166513
7 *59:10 *96:18 5.38297e-06
8 *59:10 *146:76 0
9 *59:10 *185:50 0
*RES
1 *656:X *59:10 41.8321 
2 *59:10 *657:B1 38 
*END

*D_NET *60 0.000655355
*CONN
*I *660:A4 I *D sky130_fd_sc_hd__o41a_2
*I *657:X O *D sky130_fd_sc_hd__a211o_2
*CAP
1 *660:A4 0
2 *657:X 0.000273016
3 *60:10 0.000273016
4 *60:10 *720:B 0
5 *60:10 *62:10 1.14452e-05
6 *60:10 *99:24 2.31797e-05
7 *60:10 *146:76 0
8 *60:10 *149:118 5.70419e-05
9 *60:10 *185:50 1.76557e-05
*RES
1 *657:X *60:10 42.4329 
2 *60:10 *660:A4 38 
*END

*D_NET *61 0.000300856
*CONN
*I *659:A2 I *D sky130_fd_sc_hd__a21o_2
*I *658:X O *D sky130_fd_sc_hd__or2_2
*CAP
1 *659:A2 0
2 *658:X 8.04101e-05
3 *61:8 8.04101e-05
4 *61:8 *134:21 0.000140036
*RES
1 *658:X *61:8 39.9057 
2 *61:8 *659:A2 38 
*END

*D_NET *62 0.000733477
*CONN
*I *660:B1 I *D sky130_fd_sc_hd__o41a_2
*I *659:X O *D sky130_fd_sc_hd__a21o_2
*CAP
1 *660:B1 0
2 *659:X 0.000290591
3 *62:10 0.000290591
4 *62:10 *654:A_N 5.41288e-05
5 *62:10 *720:B 0
6 *62:10 *142:40 4.5857e-05
7 *62:10 *184:59 0
8 *58:10 *62:10 4.08641e-05
9 *60:10 *62:10 1.14452e-05
*RES
1 *659:X *62:10 42.785 
2 *62:10 *660:B1 38 
*END

*D_NET *63 0.000361519
*CONN
*I *669:A2 I *D sky130_fd_sc_hd__a31o_2
*I *661:X O *D sky130_fd_sc_hd__or2_2
*CAP
1 *669:A2 0.000124417
2 *661:X 0.000124417
3 *669:A2 *661:A 8.22525e-05
4 *669:A2 *669:A1 3.04324e-05
*RES
1 *661:X *669:A2 48.5479 
*END

*D_NET *64 0.000587464
*CONN
*I *669:A3 I *D sky130_fd_sc_hd__a31o_2
*I *662:Y O *D sky130_fd_sc_hd__nand2_2
*CAP
1 *669:A3 0
2 *662:Y 0.000137256
3 *64:10 0.000137256
4 *64:10 *662:A 5.67058e-05
5 *64:10 *669:A1 0.000100615
6 *64:10 *99:12 1.37349e-05
7 *64:10 *99:14 8.68903e-05
8 *64:10 *185:16 5.50049e-05
*RES
1 *662:Y *64:10 41.5836 
2 *64:10 *669:A3 38 
*END

*D_NET *65 0.000532377
*CONN
*I *665:B1 I *D sky130_fd_sc_hd__a211o_2
*I *663:Y O *D sky130_fd_sc_hd__nor2_2
*CAP
1 *665:B1 0
2 *663:Y 0.000172104
3 *65:10 0.000172104
4 *65:10 *66:8 1.05441e-05
5 *65:10 *146:76 0
6 *65:10 *149:84 0
7 *65:10 *149:118 0.000107963
8 *65:10 *180:62 1.97178e-05
9 *65:10 *184:80 0
10 *31:23 *65:10 3.22879e-05
11 *31:31 *65:10 1.76557e-05
*RES
1 *663:Y *65:10 41.7079 
2 *65:10 *665:B1 38 
*END

*D_NET *66 0.000252976
*CONN
*I *665:C1 I *D sky130_fd_sc_hd__a211o_2
*I *664:X O *D sky130_fd_sc_hd__a2bb2o_2
*CAP
1 *665:C1 0
2 *664:X 0.000101804
3 *66:8 0.000101804
4 *66:8 *666:A1 0
5 *66:8 *146:76 3.88244e-05
6 *66:8 *149:84 0
7 *65:10 *66:8 1.05441e-05
*RES
1 *664:X *66:8 39.9057 
2 *66:8 *665:C1 38 
*END

*D_NET *67 0.000647903
*CONN
*I *666:C1 I *D sky130_fd_sc_hd__a221o_2
*I *665:X O *D sky130_fd_sc_hd__a211o_2
*CAP
1 *666:C1 0
2 *665:X 0.00026228
3 *67:10 0.00026228
4 *67:10 *151:84 3.64337e-05
5 *67:10 *180:56 8.06804e-06
6 *31:23 *67:10 7.88416e-05
*RES
1 *665:X *67:10 41.9564 
2 *67:10 *666:C1 38 
*END

*D_NET *68 0.00366072
*CONN
*I *668:B1 I *D sky130_fd_sc_hd__a41o_2
*I *666:X O *D sky130_fd_sc_hd__a221o_2
*CAP
1 *668:B1 0
2 *666:X 0.00108819
3 *68:18 0.00108819
4 *68:18 *662:A 0.000183733
5 *68:18 *662:B 0.000185434
6 *68:18 *666:A1 3.91386e-05
7 *68:18 *738:A2 9.0102e-05
8 *68:18 *738:C1 0.000182826
9 *68:18 *149:103 0.000143655
10 *68:18 *185:16 0.000556067
11 *68:18 *185:22 6.62431e-05
12 *68:18 *185:30 3.71311e-05
*RES
1 *666:X *68:18 45.4336 
2 *68:18 *668:B1 23 
*END

*D_NET *69 0.00111118
*CONN
*I *668:A4 I *D sky130_fd_sc_hd__a41o_2
*I *667:X O *D sky130_fd_sc_hd__a211o_2
*CAP
1 *668:A4 0.000122591
2 *667:X 0.000116474
3 *69:10 0.000239065
4 *668:A4 *123:12 0.000136738
5 *668:A4 *123:25 4.95081e-05
6 *69:10 *86:8 0.000114092
7 *69:10 *98:8 4.95339e-05
8 *69:10 *179:60 3.70094e-05
9 *69:10 *179:62 0.000191157
10 *69:10 *184:23 5.50106e-05
*RES
1 *667:X *69:10 41.5836 
2 *69:10 *668:A4 40.5271 
*END

*D_NET *70 0.000861495
*CONN
*I *669:B1 I *D sky130_fd_sc_hd__a31o_2
*I *668:X O *D sky130_fd_sc_hd__a41o_2
*CAP
1 *669:B1 0
2 *668:X 0.000278984
3 *70:10 0.000278984
4 *70:10 *661:B 0
5 *70:10 *669:A1 7.8128e-05
6 *70:10 *185:16 0.000225399
*RES
1 *668:X *70:10 42.785 
2 *70:10 *669:B1 38 
*END

*D_NET *71 0.000688225
*CONN
*I *678:A2 I *D sky130_fd_sc_hd__o22a_2
*I *670:Y O *D sky130_fd_sc_hd__xnor2_2
*CAP
1 *678:A2 0.000161449
2 *670:Y 0.000118463
3 *71:8 0.000279912
4 *678:A2 *73:8 0.000128401
5 *71:8 *72:10 0
6 *71:8 *94:35 0
7 *71:8 *94:52 0
8 *71:8 *142:71 0
*RES
1 *670:Y *71:8 39.9057 
2 *71:8 *678:A2 40.5271 
*END

*D_NET *72 0.000495839
*CONN
*I *672:B1 I *D sky130_fd_sc_hd__a41oi_2
*I *671:Y O *D sky130_fd_sc_hd__nand2_2
*CAP
1 *672:B1 0
2 *671:Y 0.000155338
3 *72:10 0.000155338
4 *72:10 *671:B 3.7122e-06
5 *72:10 *727:B1 1.14452e-05
6 *72:10 *94:52 0.000164394
7 *72:10 *142:71 0
8 *72:10 *179:60 5.61255e-06
9 *71:8 *72:10 0
*RES
1 *671:Y *72:10 40.8793 
2 *72:10 *672:B1 38 
*END

*D_NET *73 0.000796261
*CONN
*I *678:B1 I *D sky130_fd_sc_hd__o22a_2
*I *672:Y O *D sky130_fd_sc_hd__a41oi_2
*CAP
1 *678:B1 0
2 *672:Y 0.000237241
3 *73:8 0.000237241
4 *73:8 *678:A1 5.50106e-05
5 *73:8 *78:8 4.07902e-05
6 *73:8 *94:35 9.75779e-05
7 *678:A2 *73:8 0.000128401
*RES
1 *672:Y *73:8 28.8829 
2 *73:8 *678:B1 23 
*END

*D_NET *74 0.000968938
*CONN
*I *674:B1 I *D sky130_fd_sc_hd__o21ai_2
*I *673:Y O *D sky130_fd_sc_hd__nand2b_2
*CAP
1 *674:B1 0.000103854
2 *673:Y 0.000195926
3 *74:8 0.000299781
4 *674:B1 *676:B1 7.73389e-05
5 *674:B1 *180:49 1.14876e-05
6 *74:8 *93:8 0
7 *74:8 *93:32 0.000164291
8 *74:8 *139:10 2.49733e-05
9 *74:8 *142:63 8.62876e-05
10 *74:8 *154:96 4.99753e-06
11 *74:8 *186:23 0
*RES
1 *673:Y *74:8 42.3707 
2 *74:8 *674:B1 40.0507 
*END

*D_NET *75 0.000419803
*CONN
*I *676:B1 I *D sky130_fd_sc_hd__a211o_2
*I *674:Y O *D sky130_fd_sc_hd__o21ai_2
*CAP
1 *676:B1 7.20083e-05
2 *674:Y 7.20083e-05
3 *676:B1 *674:A2 0
4 *676:B1 *146:89 0.00018282
5 *676:B1 *180:49 1.56273e-05
6 *674:B1 *676:B1 7.73389e-05
*RES
1 *674:Y *676:B1 48.5479 
*END

*D_NET *76 0.000486441
*CONN
*I *676:C1 I *D sky130_fd_sc_hd__a211o_2
*I *675:X O *D sky130_fd_sc_hd__a22o_2
*CAP
1 *676:C1 0
2 *675:X 0.000186772
3 *76:10 0.000186772
4 *76:10 *664:B2 0
5 *76:10 *93:32 4.21594e-06
6 *76:10 *146:89 0.000108681
7 *76:10 *186:23 0
8 *76:10 *186:29 0
*RES
1 *675:X *76:10 40.8793 
2 *76:10 *676:C1 38 
*END

*D_NET *77 0.000669139
*CONN
*I *677:B1 I *D sky130_fd_sc_hd__a211o_2
*I *676:X O *D sky130_fd_sc_hd__a211o_2
*CAP
1 *677:B1 0
2 *676:X 0.000173489
3 *77:10 0.000173489
4 *77:10 *97:31 0.000141052
5 *77:10 *176:20 0.000138727
6 *32:29 *77:10 4.23817e-05
*RES
1 *676:X *77:10 41.48 
2 *77:10 *677:B1 38 
*END

*D_NET *78 0.000571052
*CONN
*I *678:B2 I *D sky130_fd_sc_hd__o22a_2
*I *677:X O *D sky130_fd_sc_hd__a211o_2
*CAP
1 *678:B2 0
2 *677:X 0.000203336
3 *78:8 0.000203336
4 *78:8 *94:35 0.00012359
5 *73:8 *78:8 4.07902e-05
*RES
1 *677:X *78:8 27.4536 
2 *78:8 *678:B2 23 
*END

*D_NET *79 0.000258889
*CONN
*I *686:A2 I *D sky130_fd_sc_hd__o22a_2
*I *679:X O *D sky130_fd_sc_hd__xor2_2
*CAP
1 *686:A2 5.20708e-05
2 *679:X 5.20708e-05
3 *686:A2 *686:B2 5.25435e-05
4 *686:A2 *179:41 0.000102203
*RES
1 *679:X *686:A2 47.595 
*END

*D_NET *80 0.000696037
*CONN
*I *685:A3 I *D sky130_fd_sc_hd__a31o_2
*I *680:Y O *D sky130_fd_sc_hd__nand3_2
*CAP
1 *685:A3 0.000186456
2 *680:Y 0.000186456
3 *685:A3 *680:A 4.08664e-05
4 *685:A3 *91:17 0.000272377
5 *685:A3 *142:63 9.87985e-06
*RES
1 *680:Y *685:A3 49.9564 
*END

*D_NET *81 0.000419093
*CONN
*I *684:B1 I *D sky130_fd_sc_hd__a211o_2
*I *681:X O *D sky130_fd_sc_hd__and2b_2
*CAP
1 *684:B1 0
2 *681:X 0.000202575
3 *81:10 0.000202575
4 *81:10 *90:23 0
5 *81:10 *142:55 0
6 *81:10 *154:81 1.39431e-05
*RES
1 *681:X *81:10 40.5271 
2 *81:10 *684:B1 38 
*END

*D_NET *82 0.00151677
*CONN
*I *686:B1 I *D sky130_fd_sc_hd__o22a_2
*I *682:X O *D sky130_fd_sc_hd__a21o_2
*CAP
1 *686:B1 3.92062e-05
2 *682:X 0.000379136
3 *82:8 0.000418342
4 *686:B1 *679:B 0.00018701
5 *686:B1 *179:41 0.000103532
6 *82:8 *91:40 4.17929e-05
7 *82:8 *126:45 0.000213311
8 *82:8 *127:8 5.44889e-06
9 *82:8 *127:20 4.49481e-05
10 *82:8 *180:49 8.4047e-05
*RES
1 *682:X *82:8 45.8921 
2 *82:8 *686:B1 40.0507 
*END

*D_NET *83 0.000428844
*CONN
*I *684:C1 I *D sky130_fd_sc_hd__a211o_2
*I *683:X O *D sky130_fd_sc_hd__a2bb2o_2
*CAP
1 *684:C1 6.12884e-05
2 *683:X 6.12884e-05
3 *684:C1 *683:A1_N 0
4 *684:C1 *684:A1 4.00259e-06
5 *684:C1 *684:A2 0.000226268
6 *684:C1 *187:47 7.59964e-05
*RES
1 *683:X *684:C1 48.9 
*END

*D_NET *84 0.000554105
*CONN
*I *685:B1 I *D sky130_fd_sc_hd__a31o_2
*I *684:X O *D sky130_fd_sc_hd__a211o_2
*CAP
1 *685:B1 0
2 *684:X 0.000208738
3 *84:8 0.000208738
4 *84:8 *685:A1 3.92407e-05
5 *84:8 *741:B1 0
6 *84:8 *90:23 0
7 *84:8 *91:8 5.20202e-05
8 *84:8 *91:25 0
9 *84:8 *128:21 3.39231e-05
10 *84:8 *139:34 1.14452e-05
*RES
1 *684:X *84:8 42.3707 
2 *84:8 *685:B1 38 
*END

*D_NET *85 0.00102001
*CONN
*I *686:B2 I *D sky130_fd_sc_hd__o22a_2
*I *685:X O *D sky130_fd_sc_hd__a31o_2
*CAP
1 *686:B2 7.34149e-05
2 *685:X 0.000188556
3 *85:10 0.000261971
4 *686:B2 *679:B 0.000319358
5 *686:B2 *179:41 9.18778e-05
6 *85:10 *685:A1 0
7 *85:10 *686:A1 0
8 *85:10 *91:17 3.22879e-05
9 *85:10 *142:55 0
10 *85:10 *179:10 0
11 *686:A2 *686:B2 5.25435e-05
*RES
1 *685:X *85:10 41.2314 
2 *85:10 *686:B2 41.48 
*END

*D_NET *86 0.000695411
*CONN
*I *667:A1 I *D sky130_fd_sc_hd__a211o_2
*I *687:Y O *D sky130_fd_sc_hd__inv_2
*CAP
1 *667:A1 0.000116937
2 *687:Y 4.276e-05
3 *86:8 0.000159697
4 *667:A1 *667:B1 2.02517e-05
5 *667:A1 *184:23 9.5877e-05
6 *667:A1 *184:35 3.17027e-05
7 *86:8 *98:8 0.000114092
8 *69:10 *86:8 0.000114092
*RES
1 *687:Y *86:8 39.5536 
2 *86:8 *667:A1 40.0714 
*END

*D_NET *87 0.000598898
*CONN
*I *744:A1 I *D sky130_fd_sc_hd__a32o_2
*I *688:Y O *D sky130_fd_sc_hd__nand2b_2
*CAP
1 *744:A1 0
2 *688:Y 0.00012568
3 *87:10 0.00012568
4 *87:10 *688:A_N 5.37348e-06
5 *87:10 *778:A 8.02348e-05
6 *87:10 *88:10 0.000141879
7 *87:10 *162:8 0.000117121
8 *87:10 *187:34 2.92911e-06
*RES
1 *688:Y *87:10 41.5836 
2 *87:10 *744:A1 38 
*END

*D_NET *88 0.0129692
*CONN
*I *634:B1 I *D sky130_fd_sc_hd__o21a_2
*I *622:B1 I *D sky130_fd_sc_hd__o21ai_2
*I *778:A I *D sky130_fd_sc_hd__clkbuf_2
*I *744:A2 I *D sky130_fd_sc_hd__a32o_2
*I *689:Y O *D sky130_fd_sc_hd__nor3b_2
*CAP
1 *634:B1 0
2 *622:B1 0
3 *778:A 0.000355997
4 *744:A2 0
5 *689:Y 0
6 *88:55 0.00187031
7 *88:49 0.00225845
8 *88:36 0.000388145
9 *88:34 0.00105211
10 *88:10 0.000865788
11 *88:4 0.0015619
12 *778:A *679:A 0
13 *778:A *741:B1 0
14 *778:A *89:18 9.20311e-06
15 *778:A *140:8 8.51432e-05
16 *778:A *162:8 2.36844e-05
17 *88:10 *690:A 6.7177e-06
18 *88:10 *690:B 0.000216721
19 *88:10 *744:B2 0
20 *88:10 *89:18 0.000140934
21 *88:10 *141:8 0
22 *88:10 *141:27 0
23 *88:10 *162:8 2.8241e-05
24 *88:10 *162:10 1.69668e-05
25 *88:10 *164:18 0
26 *88:10 *165:29 0.000141052
27 *88:10 *165:40 1.32314e-05
28 *88:10 *181:10 8.4047e-05
29 *88:10 *187:10 0.000139647
30 *88:34 *613:A1 0
31 *88:34 *742:B 0
32 *88:34 *746:A 0
33 *88:34 *143:16 0
34 *88:34 *146:8 0.000193007
35 *88:34 *150:8 0.000168786
36 *88:34 *163:10 0
37 *88:34 *164:18 6.4393e-05
38 *88:34 *165:8 0.000114083
39 *88:34 *165:40 0.00012612
40 *88:34 *166:55 0.000284747
41 *88:34 *168:8 0.000168795
42 *88:34 *182:8 0
43 *88:34 *188:40 0.000274229
44 *88:49 *627:A 0.000111781
45 *88:49 *104:8 0
46 *88:49 *105:10 6.33511e-05
47 *88:49 *152:10 7.81886e-05
48 *88:49 *155:61 0.000137651
49 *88:49 *156:20 0
50 *88:49 *166:10 1.19692e-05
51 *88:49 *166:55 0.000106288
52 *88:49 *178:27 0
53 *88:55 *704:B 1.46324e-05
54 *88:55 *710:B 0
55 *88:55 *714:B 0.000258245
56 *88:55 *103:10 1.28766e-05
57 *88:55 *110:8 9.74625e-05
58 *88:55 *110:24 2.65879e-05
59 *88:55 *113:8 0.000205566
60 *88:55 *166:23 0.000226306
61 *88:55 *166:32 0.000213069
62 *88:55 *177:14 0.000530627
63 *17:10 *778:A 0
64 *87:10 *778:A 8.02348e-05
65 *87:10 *88:10 0.000141879
*RES
1 *689:Y *88:4 23 
2 *88:4 *88:10 26.9314 
3 *88:10 *744:A2 38 
4 *88:10 *778:A 45.7057 
5 *88:4 *88:34 39.9607 
6 *88:34 *88:36 15 
7 *88:36 *622:B1 23 
8 *88:36 *88:49 38.41 
9 *88:49 *88:55 30.2014 
10 *88:55 *634:B1 23 
*END

*D_NET *89 0.0027
*CONN
*I *681:A_N I *D sky130_fd_sc_hd__and2b_2
*I *692:A I *D sky130_fd_sc_hd__nor2_2
*I *690:Y O *D sky130_fd_sc_hd__nor2_2
*CAP
1 *681:A_N 8.82695e-05
2 *692:A 0
3 *690:Y 5.92581e-05
4 *89:18 0.000252328
5 *89:12 0.00056911
6 *89:8 0.000287771
7 *681:A_N *90:10 1.94812e-05
8 *681:A_N *163:10 0.000260847
9 *89:8 *744:B2 0.000169674
10 *89:12 *691:A 5.50106e-05
11 *89:12 *691:B 5.3304e-05
12 *89:12 *90:10 1.94693e-05
13 *89:12 *163:10 0.000267173
14 *89:18 *90:10 0.000110922
15 *89:18 *90:23 0.000268491
16 *89:18 *140:8 1.01436e-05
17 *778:A *89:18 9.20311e-06
18 *18:11 *89:8 5.86165e-05
19 *88:10 *89:18 0.000140934
*RES
1 *690:Y *89:8 40.2579 
2 *89:8 *89:12 19.9093 
3 *89:12 *89:18 36.1314 
4 *89:18 *692:A 23 
5 *89:12 *681:A_N 26.0036 
*END

*D_NET *90 0.00207919
*CONN
*I *741:B1 I *D sky130_fd_sc_hd__a21o_2
*I *692:B I *D sky130_fd_sc_hd__nor2_2
*I *684:A1 I *D sky130_fd_sc_hd__a211o_2
*I *691:X O *D sky130_fd_sc_hd__and2_2
*CAP
1 *741:B1 8.33641e-05
2 *692:B 2.95011e-05
3 *684:A1 0.000118401
4 *691:X 0.000171444
5 *90:23 0.00024889
6 *90:10 0.00042587
7 *684:A1 *684:A2 4.37033e-05
8 *684:A1 *187:47 0.000327273
9 *692:B *744:A3 5.50106e-05
10 *741:B1 *91:8 7.28526e-05
11 *741:B1 *140:8 8.05114e-05
12 *681:A_N *90:10 1.94812e-05
13 *684:C1 *684:A1 4.00259e-06
14 *778:A *741:B1 0
15 *81:10 *90:23 0
16 *84:8 *741:B1 0
17 *84:8 *90:23 0
18 *89:12 *90:10 1.94693e-05
19 *89:18 *90:10 0.000110922
20 *89:18 *90:23 0.000268491
*RES
1 *691:X *90:10 40.6514 
2 *90:10 *684:A1 41.9771 
3 *90:10 *90:23 3.66643 
4 *90:23 *692:B 38.6214 
5 *90:23 *741:B1 40.61 
*END

*D_NET *91 0.00333595
*CONN
*I *679:A I *D sky130_fd_sc_hd__xor2_2
*I *680:A I *D sky130_fd_sc_hd__nand3_2
*I *683:B2 I *D sky130_fd_sc_hd__a2bb2o_2
*I *729:B1 I *D sky130_fd_sc_hd__a21o_2
*I *741:A1 I *D sky130_fd_sc_hd__a21o_2
*I *692:Y O *D sky130_fd_sc_hd__nor2_2
*CAP
1 *679:A 0.000151806
2 *680:A 3.24413e-05
3 *683:B2 0
4 *729:B1 0
5 *741:A1 0
6 *692:Y 5.56027e-05
7 *91:40 0.000304815
8 *91:25 0.000520721
9 *91:17 0.000522173
10 *91:10 0.000273826
11 *91:8 0.000207409
12 *679:A *139:34 0.000203653
13 *679:A *179:10 7.30026e-05
14 *680:A *142:63 3.7122e-06
15 *91:8 *139:34 3.70094e-05
16 *91:17 *685:A1 2.93845e-05
17 *91:25 *685:A1 0
18 *91:25 *128:6 5.3304e-05
19 *91:25 *128:21 0
20 *91:25 *142:55 0.000188926
21 *91:40 *675:A1 1.65191e-05
22 *91:40 *146:107 5.56279e-05
23 *91:40 *180:49 8.62876e-05
24 *683:B1 *91:40 7.53384e-06
25 *685:A3 *680:A 4.08664e-05
26 *685:A3 *91:17 0.000272377
27 *741:B1 *91:8 7.28526e-05
28 *778:A *679:A 0
29 *82:8 *91:40 4.17929e-05
30 *84:8 *91:8 5.20202e-05
31 *84:8 *91:25 0
32 *85:10 *91:17 3.22879e-05
*RES
1 *692:Y *91:8 39.9057 
2 *91:8 *91:10 15 
3 *91:10 *741:A1 23 
4 *91:10 *91:17 5.86214 
5 *91:17 *91:25 34.1843 
6 *91:25 *729:B1 23 
7 *91:25 *91:40 35.6343 
8 *91:40 *683:B2 23 
9 *91:17 *680:A 23.6214 
10 *91:8 *679:A 41.9357 
*END

*D_NET *92 0.00119442
*CONN
*I *695:A I *D sky130_fd_sc_hd__nor2_2
*I *673:A_N I *D sky130_fd_sc_hd__nand2b_2
*I *693:Y O *D sky130_fd_sc_hd__nor2_2
*CAP
1 *695:A 0
2 *673:A_N 0
3 *693:Y 4.04333e-05
4 *92:14 0.000154313
5 *92:6 0.000194747
6 *92:6 *142:63 1.59094e-05
7 *92:14 *679:B 0.000228909
8 *92:14 *93:8 0.000166522
9 *92:14 *139:10 0
10 *92:14 *142:63 0
11 *92:14 *179:41 0.000128401
12 *92:14 *186:10 1.14452e-05
13 *92:14 *186:12 0.000243596
14 *92:14 *186:23 1.01436e-05
*RES
1 *693:Y *92:6 23.6214 
2 *92:6 *92:14 35.8414 
3 *92:14 *673:A_N 23 
4 *92:6 *695:A 23 
*END

*D_NET *93 0.00131562
*CONN
*I *676:A1 I *D sky130_fd_sc_hd__a211o_2
*I *740:B1 I *D sky130_fd_sc_hd__a31o_2
*I *695:B I *D sky130_fd_sc_hd__nor2_2
*I *694:X O *D sky130_fd_sc_hd__and2_2
*CAP
1 *676:A1 0
2 *740:B1 0
3 *695:B 0
4 *694:X 9.81512e-05
5 *93:32 0.000127583
6 *93:19 0.000160303
7 *93:12 6.26649e-05
8 *93:8 0.000128095
9 *93:12 *142:63 1.94812e-05
10 *93:19 *740:A1 5.70419e-05
11 *93:19 *94:20 3.22879e-05
12 *93:19 *142:63 3.53115e-05
13 *93:32 *664:B2 6.70363e-05
14 *93:32 *740:A1 4.21281e-05
15 *93:32 *740:A2 7.48331e-05
16 *93:32 *94:20 4.9662e-05
17 *93:32 *154:96 2.60152e-05
18 *93:32 *186:23 0
19 *74:8 *93:8 0
20 *74:8 *93:32 0.000164291
21 *76:10 *93:32 4.21594e-06
22 *92:14 *93:8 0.000166522
*RES
1 *694:X *93:8 40.2579 
2 *93:8 *93:12 15.6214 
3 *93:12 *695:B 23 
4 *93:12 *93:19 1.57429 
5 *93:19 *740:B1 23 
6 *93:19 *93:32 33.7079 
7 *93:32 *676:A1 23 
*END

*D_NET *94 0.00443819
*CONN
*I *672:A1 I *D sky130_fd_sc_hd__a41oi_2
*I *727:B1 I *D sky130_fd_sc_hd__a31o_2
*I *670:A I *D sky130_fd_sc_hd__xnor2_2
*I *677:A1 I *D sky130_fd_sc_hd__a211o_2
*I *740:A1 I *D sky130_fd_sc_hd__a31o_2
*I *695:Y O *D sky130_fd_sc_hd__nor2_2
*CAP
1 *672:A1 4.24211e-05
2 *727:B1 9.2856e-05
3 *670:A 0
4 *677:A1 4.01155e-05
5 *740:A1 0.000143562
6 *695:Y 0.000421812
7 *94:52 0.000527773
8 *94:35 0.00076804
9 *94:20 0.000693909
10 *727:B1 *122:37 7.03766e-05
11 *727:B1 *123:25 1.02387e-05
12 *94:20 *740:A3 5.97178e-05
13 *94:20 *139:10 0.000139352
14 *94:20 *142:63 0.000141052
15 *94:35 *740:A3 2.62931e-05
16 *94:35 *138:10 0.000166532
17 *94:35 *142:71 0.000139657
18 *94:35 *174:8 0
19 *94:52 *122:37 4.6318e-06
20 *94:52 *126:8 0
21 *94:52 *142:71 2.64616e-05
22 *94:52 *179:41 0.000190191
23 *94:52 *179:45 0.000111596
24 *94:52 *179:60 4.34745e-05
25 *71:8 *94:35 0
26 *71:8 *94:52 0
27 *72:10 *727:B1 1.14452e-05
28 *72:10 *94:52 0.000164394
29 *73:8 *94:35 9.75779e-05
30 *78:8 *94:35 0.00012359
31 *93:19 *740:A1 5.70419e-05
32 *93:19 *94:20 3.22879e-05
33 *93:32 *740:A1 4.21281e-05
34 *93:32 *94:20 4.9662e-05
*RES
1 *695:Y *740:A1 48.0507 
2 *695:Y *94:20 28.8829 
3 *94:20 *677:A1 23.8493 
4 *94:20 *94:35 38.4721 
5 *94:35 *670:A 23 
6 *94:35 *94:52 24.6114 
7 *94:52 *727:B1 40.2579 
8 *94:52 *672:A1 38.6214 
*END

*D_NET *95 0.00153323
*CONN
*I *699:A I *D sky130_fd_sc_hd__and2_2
*I *697:A I *D sky130_fd_sc_hd__inv_2
*I *700:A I *D sky130_fd_sc_hd__nand2_2
*I *696:Y O *D sky130_fd_sc_hd__nand2_2
*CAP
1 *699:A 3.20607e-05
2 *697:A 0
3 *700:A 4.26367e-05
4 *696:Y 0.000286921
5 *95:29 0.000133712
6 *95:16 0.000431209
7 *699:A *173:8 5.3304e-05
8 *700:A *97:8 9.67842e-05
9 *700:A *99:12 2.93845e-05
10 *95:16 *698:A 8.30364e-05
11 *95:16 *97:8 5.3304e-05
12 *95:16 *99:12 5.90675e-06
13 *95:16 *160:14 0
14 *95:29 *122:29 0.000192087
15 *95:29 *123:25 9.28842e-05
*RES
1 *696:Y *95:16 28.2614 
2 *95:16 *700:A 24.0979 
3 *95:16 *95:29 32.61 
4 *95:29 *697:A 23 
5 *95:29 *699:A 23.6214 
*END

*D_NET *96 0.00453397
*CONN
*I *738:B1 I *D sky130_fd_sc_hd__a211o_2
*I *665:A1 I *D sky130_fd_sc_hd__a211o_2
*I *697:Y O *D sky130_fd_sc_hd__inv_2
*CAP
1 *738:B1 0
2 *665:A1 0
3 *697:Y 0.00085398
4 *96:18 0.000883364
5 *96:10 0.00173734
6 *96:10 *661:A 0.000214036
7 *96:10 *661:B 0
8 *96:10 *738:A2 1.83564e-05
9 *96:10 *137:10 0
10 *96:10 *173:8 3.28609e-05
11 *96:18 *656:A1 0.000354122
12 *96:18 *656:A2 0.000300768
13 *96:18 *738:A2 6.68793e-05
14 *96:18 *119:94 6.68793e-05
15 *32:29 *96:10 0
16 *59:10 *96:18 5.38297e-06
*RES
1 *697:Y *96:10 49.9314 
2 *96:10 *96:18 29.3343 
3 *96:18 *665:A1 23 
4 *96:10 *738:B1 38 
*END

*D_NET *97 0.00525934
*CONN
*I *699:B I *D sky130_fd_sc_hd__and2_2
*I *700:B I *D sky130_fd_sc_hd__nand2_2
*I *740:A2 I *D sky130_fd_sc_hd__a31o_2
*I *664:B2 I *D sky130_fd_sc_hd__a2bb2o_2
*I *739:A I *D sky130_fd_sc_hd__nand2_2
*I *698:X O *D sky130_fd_sc_hd__or2_4
*CAP
1 *699:B 0
2 *700:B 0
3 *740:A2 3.48126e-05
4 *664:B2 0.00032834
5 *739:A 0
6 *698:X 0.000217327
7 *97:63 6.19564e-05
8 *97:31 0.000807882
9 *97:18 0.00106712
10 *97:8 0.000777758
11 *664:B2 *664:B1 0.000166504
12 *664:B2 *146:89 0.000189318
13 *664:B2 *154:96 0.000536061
14 *740:A2 *154:96 8.85189e-05
15 *97:8 *99:12 2.98648e-05
16 *97:18 *123:25 0.000111148
17 *97:18 *138:10 3.22879e-05
18 *97:31 *739:B 0.000185434
19 *97:31 *180:49 6.17437e-06
20 *97:63 *179:60 0.000140958
21 *97:63 *185:59 4.48671e-05
22 *700:A *97:8 9.67842e-05
23 *76:10 *664:B2 0
24 *77:10 *97:31 0.000141052
25 *93:32 *664:B2 6.70363e-05
26 *93:32 *740:A2 7.48331e-05
27 *95:16 *97:8 5.3304e-05
*RES
1 *698:X *97:8 26.0243 
2 *97:8 *97:18 41.7036 
3 *97:18 *739:A 23 
4 *97:18 *97:31 23.2857 
5 *97:31 *664:B2 47.3007 
6 *97:31 *740:A2 39.2014 
7 *97:8 *700:B 23 
8 *698:X *97:63 39.9057 
9 *97:63 *699:B 38 
*END

*D_NET *98 0.00145598
*CONN
*I *724:B I *D sky130_fd_sc_hd__or3b_2
*I *722:A I *D sky130_fd_sc_hd__or2_2
*I *699:X O *D sky130_fd_sc_hd__and2_2
*CAP
1 *724:B 0
2 *722:A 0.000168896
3 *699:X 0.000251523
4 *98:10 0.000168896
5 *98:8 0.000251523
6 *722:A *121:10 4.49829e-05
7 *722:A *159:18 4.61404e-05
8 *98:8 *687:A 0.000134585
9 *98:8 *123:8 6.7177e-06
10 *98:8 *159:12 4.334e-05
11 *98:8 *179:60 4.63333e-05
12 *98:8 *179:62 4.31263e-05
13 *98:8 *185:59 8.62876e-05
14 *69:10 *98:8 4.95339e-05
15 *86:8 *98:8 0.000114092
*RES
1 *699:X *98:8 44.8357 
2 *98:8 *98:10 15 
3 *98:10 *722:A 26.5421 
4 *98:10 *724:B 23 
*END

*D_NET *99 0.00626746
*CONN
*I *661:A I *D sky130_fd_sc_hd__or2_2
*I *662:A I *D sky130_fd_sc_hd__nand2_2
*I *667:B1 I *D sky130_fd_sc_hd__a211o_2
*I *663:A I *D sky130_fd_sc_hd__nor2_2
*I *700:Y O *D sky130_fd_sc_hd__nand2_2
*CAP
1 *661:A 0.000191447
2 *662:A 4.53282e-05
3 *667:B1 0.000115778
4 *663:A 0
5 *700:Y 0.000245092
6 *99:24 0.00102197
7 *99:16 0.00129242
8 *99:14 0.000329126
9 *99:12 0.000565658
10 *661:A *669:A1 3.04324e-05
11 *661:A *173:8 6.17437e-06
12 *662:A *185:16 6.84456e-05
13 *667:B1 *184:35 4.96717e-05
14 *99:12 *123:25 7.91596e-05
15 *99:14 *669:A1 0
16 *99:14 *122:29 0
17 *99:14 *123:25 7.91596e-05
18 *99:16 *669:A1 0
19 *99:16 *122:10 0
20 *99:24 *669:A1 0
21 *99:24 *117:8 0.000486246
22 *99:24 *120:14 1.47563e-05
23 *99:24 *122:10 0
24 *99:24 *149:118 0.000165371
25 *99:24 *176:54 0
26 *99:24 *184:35 0.000437521
27 *99:24 *185:50 0.000272383
28 *667:A1 *667:B1 2.02517e-05
29 *669:A2 *661:A 8.22525e-05
30 *700:A *99:12 2.93845e-05
31 *31:31 *99:24 2.53761e-05
32 *60:10 *99:24 2.31797e-05
33 *64:10 *662:A 5.67058e-05
34 *64:10 *99:12 1.37349e-05
35 *64:10 *99:14 8.68903e-05
36 *68:18 *662:A 0.000183733
37 *95:16 *99:12 5.90675e-06
38 *96:10 *661:A 0.000214036
39 *97:8 *99:12 2.98648e-05
*RES
1 *700:Y *99:12 42.3293 
2 *99:12 *99:14 2.96214 
3 *99:14 *99:16 2.25786 
4 *99:16 *99:24 37.0607 
5 *99:24 *663:A 23 
6 *99:16 *667:B1 40.0714 
7 *99:14 *662:A 40.0507 
8 *99:12 *661:A 42.93 
*END

*D_NET *100 0.000418436
*CONN
*I *702:A I *D sky130_fd_sc_hd__inv_2
*I *717:A I *D sky130_fd_sc_hd__nand2_2
*I *701:Y O *D sky130_fd_sc_hd__nand2b_2
*CAP
1 *702:A 0
2 *717:A 3.23864e-05
3 *701:Y 0.000109164
4 *100:10 3.23864e-05
5 *100:8 0.000109164
6 *717:A *101:10 3.46216e-05
7 *717:A *101:28 5.45541e-05
8 *100:8 *158:16 4.61596e-05
*RES
1 *701:Y *100:8 40.2579 
2 *100:8 *100:10 15 
3 *100:10 *717:A 24.0979 
4 *100:10 *702:A 23 
*END

*D_NET *101 0.00155464
*CONN
*I *723:A I *D sky130_fd_sc_hd__or3b_2
*I *731:A I *D sky130_fd_sc_hd__nor2_2
*I *702:Y O *D sky130_fd_sc_hd__inv_2
*CAP
1 *723:A 0
2 *731:A 0
3 *702:Y 0.00051902
4 *101:28 0.000197149
5 *101:10 0.000321871
6 *101:10 *701:A_N 1.13812e-05
7 *101:10 *115:8 0.000170807
8 *101:10 *116:10 9.79925e-05
9 *101:10 *158:18 2.92911e-06
10 *101:10 *179:72 7.50533e-05
11 *101:28 *158:16 1.0092e-05
12 *101:28 *179:72 5.91668e-05
13 *717:A *101:10 3.46216e-05
14 *717:A *101:28 5.45541e-05
*RES
1 *702:Y *101:10 43.7379 
2 *101:10 *731:A 38 
3 *702:Y *101:28 41.48 
4 *101:28 *723:A 38 
*END

*D_NET *102 0.00240269
*CONN
*I *731:B I *D sky130_fd_sc_hd__nor2_2
*I *716:C1 I *D sky130_fd_sc_hd__a211o_2
*I *703:X O *D sky130_fd_sc_hd__and2b_2
*CAP
1 *731:B 0
2 *716:C1 0.000253769
3 *703:X 0.000609835
4 *102:30 0.000397563
5 *102:8 0.000466042
6 *716:C1 *716:A1 8.13415e-05
7 *716:C1 *716:A2 1.40958e-05
8 *716:C1 *111:35 0
9 *102:8 *114:10 0
10 *102:8 *115:8 6.36037e-05
11 *102:30 *115:8 8.46496e-05
12 *102:30 *130:17 0.000158882
13 *102:30 *183:12 5.50106e-05
14 *46:10 *102:8 5.56306e-05
15 *47:8 *102:30 0.000162263
*RES
1 *703:X *102:8 42.7229 
2 *102:8 *716:C1 42.93 
3 *703:X *102:30 45.25 
4 *102:30 *731:B 38 
*END

*D_NET *103 0.00138002
*CONN
*I *629:B2 I *D sky130_fd_sc_hd__a2bb2o_2
*I *733:B1 I *D sky130_fd_sc_hd__a31o_2
*I *704:X O *D sky130_fd_sc_hd__and2_2
*CAP
1 *629:B2 0.000152171
2 *733:B1 2.77779e-05
3 *704:X 0.000233841
4 *103:10 0.00041379
5 *629:B2 *630:B1 0.000215801
6 *733:B1 *132:6 0.000144494
7 *733:B1 *153:12 0.000144494
8 *103:10 *630:B1 3.47781e-05
9 *88:55 *103:10 1.28766e-05
*RES
1 *704:X *103:10 41.48 
2 *103:10 *733:B1 39.5743 
3 *103:10 *629:B2 40.9621 
*END

*D_NET *104 0.00258409
*CONN
*I *628:B2 I *D sky130_fd_sc_hd__a221o_2
*I *733:A3 I *D sky130_fd_sc_hd__a31o_2
*I *705:X O *D sky130_fd_sc_hd__or2_2
*CAP
1 *628:B2 0.000394197
2 *733:A3 2.32701e-05
3 *705:X 0.000236776
4 *104:8 0.000654243
5 *628:B2 *627:A 0
6 *628:B2 *733:A2 0.000259658
7 *628:B2 *142:10 0.000193203
8 *628:B2 *154:12 2.84288e-05
9 *628:B2 *155:42 5.29888e-05
10 *628:B2 *155:44 0.000337518
11 *628:B2 *166:55 0
12 *733:A3 *132:6 5.3304e-05
13 *733:A3 *153:12 5.3304e-05
14 *104:8 *627:A 0
15 *104:8 *705:B 7.81176e-05
16 *104:8 *733:A2 6.16439e-05
17 *104:8 *105:10 0
18 *104:8 *107:8 0
19 *104:8 *156:20 0
20 *104:8 *166:47 5.9679e-05
21 *33:10 *628:B2 8.92738e-05
22 *34:10 *628:B2 8.48502e-06
23 *88:49 *104:8 0
*RES
1 *705:X *104:8 42.7229 
2 *104:8 *733:A3 38.6214 
3 *104:8 *628:B2 47.28 
*END

*D_NET *105 0.00107336
*CONN
*I *627:A I *D sky130_fd_sc_hd__nor2_2
*I *767:A I *D sky130_fd_sc_hd__clkbuf_2
*I *706:Y O *D sky130_fd_sc_hd__xnor2_2
*CAP
1 *627:A 0.000188985
2 *767:A 0
3 *706:Y 0.000121835
4 *105:10 0.00031082
5 *627:A *155:61 9.84851e-05
6 *627:A *166:55 3.71369e-05
7 *105:10 *706:A 3.22879e-05
8 *105:10 *107:8 0.000108681
9 *628:B2 *627:A 0
10 *88:49 *627:A 0.000111781
11 *88:49 *105:10 6.33511e-05
12 *104:8 *627:A 0
13 *104:8 *105:10 0
*RES
1 *706:Y *105:10 40.5271 
2 *105:10 *767:A 38 
3 *105:10 *627:A 42.4121 
*END

*D_NET *106 0.00110828
*CONN
*I *622:A2 I *D sky130_fd_sc_hd__o21ai_2
*I *623:A2 I *D sky130_fd_sc_hd__a21oi_2
*I *709:A2 I *D sky130_fd_sc_hd__a21o_2
*I *707:Y O *D sky130_fd_sc_hd__nand2b_2
*CAP
1 *622:A2 2.205e-05
2 *623:A2 0
3 *709:A2 4.48512e-05
4 *707:Y 9.42373e-05
5 *106:14 0.000156428
6 *106:8 0.000227864
7 *622:A2 *155:61 5.50106e-05
8 *709:A2 *709:B1 3.3387e-05
9 *709:A2 *108:8 5.3304e-05
10 *106:8 *155:61 0.000139346
11 *106:14 *631:A 3.70094e-05
12 *106:14 *178:27 0.000191148
13 *106:14 *188:40 5.36457e-05
*RES
1 *707:Y *106:8 25.0714 
2 *106:8 *106:14 32.9621 
3 *106:14 *709:A2 24.1186 
4 *106:14 *623:A2 23 
5 *106:8 *622:A2 23.6214 
*END

*D_NET *107 0.00163479
*CONN
*I *709:B1 I *D sky130_fd_sc_hd__a21o_2
*I *708:X O *D sky130_fd_sc_hd__and2b_2
*CAP
1 *709:B1 0.000274323
2 *708:X 0.000100321
3 *107:8 0.000374644
4 *709:B1 *709:A1 5.50049e-05
5 *709:B1 *108:8 0.000105413
6 *709:B1 *153:12 0.000267167
7 *709:B1 *178:6 0.000259146
8 *709:B1 *178:14 5.67058e-05
9 *709:A2 *709:B1 3.3387e-05
10 *104:8 *107:8 0
11 *105:10 *107:8 0.000108681
*RES
1 *708:X *107:8 39.5536 
2 *107:8 *709:B1 45.7886 
*END

*D_NET *108 0.00847486
*CONN
*I *713:A I *D sky130_fd_sc_hd__nand2_2
*I *716:A1 I *D sky130_fd_sc_hd__a211o_2
*I *715:A1 I *D sky130_fd_sc_hd__a21o_2
*I *634:A1 I *D sky130_fd_sc_hd__o21a_2
*I *709:X O *D sky130_fd_sc_hd__a21o_2
*CAP
1 *713:A 0
2 *716:A1 0.000171062
3 *715:A1 0.000107644
4 *634:A1 4.40386e-05
5 *709:X 0
6 *108:12 0.000278948
7 *108:8 0.00153126
8 *108:4 0.00123293
9 *634:A1 *111:43 2.96051e-05
10 *715:A1 *113:8 0.000139357
11 *716:A1 *716:A2 0.000308919
12 *716:A1 *111:35 7.3862e-05
13 *108:8 *111:35 0.00146118
14 *108:8 *112:8 7.06229e-05
15 *108:8 *132:6 0.00096101
16 *108:8 *153:12 6.04088e-05
17 *108:8 *176:64 0.000103637
18 *108:8 *178:6 0.000153145
19 *108:8 *178:14 2.93845e-05
20 *108:8 *188:48 0.000312342
21 *108:8 *188:61 0.000678259
22 *108:12 *111:39 2.60152e-05
23 *108:12 *111:43 4.08641e-05
24 *108:12 *176:64 4.6318e-06
25 *640:A2 *108:8 0.000309734
26 *709:A2 *108:8 5.3304e-05
27 *709:B1 *108:8 0.000105413
28 *716:C1 *716:A1 8.13415e-05
29 *39:10 *108:12 0
30 *44:8 *108:8 0.000105934
*RES
1 *709:X *108:4 23 
2 *108:4 *108:8 38.1557 
3 *108:8 *108:12 16.9057 
4 *108:12 *634:A1 38.8493 
5 *108:12 *715:A1 39.5743 
6 *108:8 *716:A1 27.9507 
7 *108:8 *713:A 23 
*END

*D_NET *109 0.00166313
*CONN
*I *712:A_N I *D sky130_fd_sc_hd__nand2b_2
*I *638:A1 I *D sky130_fd_sc_hd__a221o_2
*I *734:B1 I *D sky130_fd_sc_hd__a21oi_2
*I *710:X O *D sky130_fd_sc_hd__and2_2
*CAP
1 *712:A_N 9.71093e-05
2 *638:A1 0
3 *734:B1 1.48031e-05
4 *710:X 0.00030988
5 *109:22 0.000392186
6 *712:A_N *638:B2 4.13945e-05
7 *712:A_N *640:A1 0
8 *712:A_N *177:71 6.48142e-05
9 *734:B1 *157:31 0.00010018
10 *734:B1 *177:14 5.70419e-05
11 *109:22 *638:B2 1.83667e-05
12 *109:22 *640:A1 0
13 *109:22 *133:10 0.000312088
14 *109:22 *157:31 5.67058e-05
15 *109:22 *170:10 3.83778e-05
16 *31:41 *109:22 0
17 *42:10 *109:22 0.000160182
*RES
1 *710:X *734:B1 47.0979 
2 *710:X *109:22 44.0486 
3 *109:22 *638:A1 38 
4 *109:22 *712:A_N 40.2579 
*END

*D_NET *110 0.00287352
*CONN
*I *712:B I *D sky130_fd_sc_hd__nand2b_2
*I *637:B2 I *D sky130_fd_sc_hd__a221o_2
*I *734:A1 I *D sky130_fd_sc_hd__a21oi_2
*I *711:X O *D sky130_fd_sc_hd__or2_2
*CAP
1 *712:B 0
2 *637:B2 1.17441e-05
3 *734:A1 0
4 *711:X 0.000505018
5 *110:43 0.000312619
6 *110:26 0.000324363
7 *110:24 0.000393627
8 *110:8 0.000111391
9 *637:B2 *629:A2_N 8.13269e-06
10 *637:B2 *637:A1 2.85422e-05
11 *110:8 *157:31 0.000151601
12 *110:8 *177:14 0.000185434
13 *110:24 *630:B1 0
14 *110:24 *637:B1 1.01436e-05
15 *110:24 *111:14 0
16 *110:24 *177:41 0
17 *110:43 *629:A2_N 0.000141052
18 *110:43 *637:A1 5.78735e-05
19 *110:43 *637:A2 3.32677e-05
20 *110:43 *638:A2 0.000156759
21 *110:43 *638:B2 9.21347e-06
22 *110:43 *149:47 0.000148106
23 *31:31 *110:43 4.21594e-06
24 *31:41 *110:43 1.69771e-05
25 *40:8 *110:24 6.07611e-06
26 *41:10 *110:43 0.000133316
27 *88:55 *110:8 9.74625e-05
28 *88:55 *110:24 2.65879e-05
*RES
1 *711:X *110:8 27.4536 
2 *110:8 *734:A1 23 
3 *711:X *110:24 44.525 
4 *110:24 *110:26 15 
5 *110:26 *637:B2 23.3314 
6 *110:26 *110:43 37.6643 
7 *110:43 *712:B 23 
*END

*D_NET *111 0.00705816
*CONN
*I *636:A I *D sky130_fd_sc_hd__nor2_2
*I *713:B I *D sky130_fd_sc_hd__nand2_2
*I *716:A2 I *D sky130_fd_sc_hd__a211o_2
*I *715:A2 I *D sky130_fd_sc_hd__a21o_2
*I *634:A2 I *D sky130_fd_sc_hd__o21a_2
*I *633:A I *D sky130_fd_sc_hd__xnor2_2
*I *712:Y O *D sky130_fd_sc_hd__nand2b_2
*CAP
1 *636:A 0
2 *713:B 0
3 *716:A2 0.000258416
4 *715:A2 0
5 *634:A2 7.91831e-05
6 *633:A 0
7 *712:Y 9.92313e-05
8 *111:43 0.000199674
9 *111:39 0.000423738
10 *111:35 0.00114751
11 *111:14 0.00138644
12 *111:8 0.000382993
13 *634:A2 *715:B1 4.00259e-06
14 *634:A2 *113:8 8.1796e-05
15 *111:8 *142:25 0.000271476
16 *111:8 *149:47 0.000110651
17 *111:8 *177:71 1.03955e-05
18 *111:14 *637:A2 0.000187996
19 *111:14 *177:41 0.000366768
20 *111:35 *177:41 1.86973e-05
21 *634:A1 *111:43 2.96051e-05
22 *716:A1 *716:A2 0.000308919
23 *716:A1 *111:35 7.3862e-05
24 *716:C1 *716:A2 1.40958e-05
25 *716:C1 *111:35 0
26 *31:41 *111:14 2.49836e-05
27 *41:10 *111:8 4.9662e-05
28 *108:8 *111:35 0.00146118
29 *108:12 *111:39 2.60152e-05
30 *108:12 *111:43 4.08641e-05
31 *110:24 *111:14 0
*RES
1 *712:Y *111:8 26.5007 
2 *111:8 *111:14 35.7793 
3 *111:14 *633:A 23 
4 *111:14 *111:35 49.1814 
5 *111:35 *111:39 15.8493 
6 *111:39 *111:43 16.9057 
7 *111:43 *634:A2 25.0714 
8 *111:43 *715:A2 23 
9 *111:39 *716:A2 42.3293 
10 *111:35 *713:B 23 
11 *111:8 *636:A 23 
*END

*D_NET *112 0.000634066
*CONN
*I *639:A1 I *D sky130_fd_sc_hd__a211o_2
*I *713:Y O *D sky130_fd_sc_hd__nand2_2
*CAP
1 *639:A1 0
2 *713:Y 0.000188157
3 *112:8 0.000188157
4 *112:8 *176:64 0.000187129
5 *108:8 *112:8 7.06229e-05
*RES
1 *713:Y *112:8 27.4536 
2 *112:8 *639:A1 23 
*END

*D_NET *113 0.00168368
*CONN
*I *716:B1 I *D sky130_fd_sc_hd__a211o_2
*I *715:B1 I *D sky130_fd_sc_hd__a21o_2
*I *714:X O *D sky130_fd_sc_hd__and2b_2
*CAP
1 *716:B1 0
2 *715:B1 2.1727e-05
3 *714:X 0.000281573
4 *113:23 0.000183329
5 *113:8 0.000486629
6 *113:23 *114:10 4.90994e-05
7 *634:A2 *715:B1 4.00259e-06
8 *634:A2 *113:8 8.1796e-05
9 *715:A1 *113:8 0.000139357
10 *39:10 *113:8 0.000230604
11 *88:55 *113:8 0.000205566
*RES
1 *714:X *113:8 31.265 
2 *113:8 *715:B1 23.4971 
3 *113:8 *113:23 32.8793 
4 *113:23 *716:B1 23 
*END

*D_NET *114 0.00124405
*CONN
*I *643:A I *D sky130_fd_sc_hd__nand2_2
*I *642:A I *D sky130_fd_sc_hd__or2_2
*I *715:X O *D sky130_fd_sc_hd__a21o_2
*CAP
1 *643:A 7.39394e-05
2 *642:A 0
3 *715:X 0.000381706
4 *114:10 0.000455645
5 *643:A *115:8 0.000102365
6 *643:A *130:17 6.07611e-06
7 *643:A *130:21 8.76088e-05
8 *114:10 *115:8 8.76088e-05
9 *102:8 *114:10 0
10 *113:23 *114:10 4.90994e-05
*RES
1 *715:X *114:10 44.525 
2 *114:10 *642:A 38 
3 *114:10 *643:A 40.61 
*END

*D_NET *115 0.00276952
*CONN
*I *723:C_N I *D sky130_fd_sc_hd__or3b_2
*I *717:B I *D sky130_fd_sc_hd__nand2_2
*I *716:X O *D sky130_fd_sc_hd__a211o_2
*CAP
1 *723:C_N 0.000139702
2 *717:B 2.94732e-05
3 *716:X 0
4 *115:8 0.000580797
5 *115:6 0.000411621
6 *717:B *116:10 5.45644e-05
7 *717:B *158:18 5.45644e-05
8 *723:C_N *652:B 3.28357e-06
9 *723:C_N *116:10 7.4065e-05
10 *723:C_N *122:8 6.17437e-06
11 *723:C_N *122:10 3.90213e-05
12 *723:C_N *179:72 3.21291e-05
13 *115:8 *701:A_N 5.42521e-05
14 *115:8 *116:10 3.13952e-05
15 *115:8 *130:17 0
16 *115:8 *179:72 2.07008e-05
17 *643:A *115:8 0.000102365
18 *46:10 *115:8 0.00045507
19 *47:8 *115:8 0.00021788
20 *55:10 *723:C_N 5.5792e-05
21 *101:10 *115:8 0.000170807
22 *102:8 *115:8 6.36037e-05
23 *102:30 *115:8 8.46496e-05
24 *114:10 *115:8 8.76088e-05
*RES
1 *716:X *115:6 38 
2 *115:6 *115:8 13.5264 
3 *115:8 *717:B 39.0979 
4 *115:8 *723:C_N 41.3764 
*END

*D_NET *116 0.0014751
*CONN
*I *721:A I *D sky130_fd_sc_hd__nor2_2
*I *652:A I *D sky130_fd_sc_hd__nand2_2
*I *717:Y O *D sky130_fd_sc_hd__nand2_2
*CAP
1 *721:A 0.00018045
2 *652:A 0
3 *717:Y 0.000260508
4 *116:10 0.000440959
5 *721:A *652:B 8.61691e-05
6 *721:A *722:B 3.62323e-05
7 *721:A *119:29 8.4047e-05
8 *721:A *119:63 8.4047e-05
9 *721:A *122:10 7.99563e-06
10 *721:A *176:54 0
11 *116:10 *122:10 8.52094e-06
12 *116:10 *158:18 2.81549e-05
13 *717:B *116:10 5.45644e-05
14 *723:C_N *116:10 7.4065e-05
15 *101:10 *116:10 9.79925e-05
16 *115:8 *116:10 3.13952e-05
*RES
1 *717:Y *116:10 43.8414 
2 *116:10 *652:A 38 
3 *116:10 *721:A 42.0807 
*END

*D_NET *117 0.00359918
*CONN
*I *656:A1 I *D sky130_fd_sc_hd__a22o_2
*I *738:C1 I *D sky130_fd_sc_hd__a211o_2
*I *737:B1 I *D sky130_fd_sc_hd__a21oi_2
*I *720:A I *D sky130_fd_sc_hd__nor2_2
*I *718:X O *D sky130_fd_sc_hd__and2_2
*CAP
1 *656:A1 0.000218259
2 *738:C1 0.000145282
3 *737:B1 2.79004e-05
4 *720:A 0
5 *718:X 0.000289186
6 *117:35 0.000425506
7 *117:22 0.000216036
8 *117:8 0.000163016
9 *656:A1 *656:B2 0.000141954
10 *656:A1 *737:A1 0.000139357
11 *656:A1 *119:81 9.67842e-05
12 *656:A1 *176:50 6.70749e-05
13 *737:B1 *176:50 5.50106e-05
14 *738:C1 *669:A1 0
15 *738:C1 *738:A2 0.000108499
16 *738:C1 *136:8 0.000138718
17 *738:C1 *185:16 6.9805e-05
18 *117:8 *720:B 5.50049e-05
19 *117:8 *119:8 8.48502e-06
20 *117:8 *184:35 0.00010018
21 *117:8 *184:45 0.000107476
22 *117:8 *185:50 0
23 *117:22 *134:32 0
24 *117:22 *176:54 0
25 *117:35 *669:A1 0
26 *59:10 *656:A1 2.45549e-06
27 *68:18 *738:C1 0.000182826
28 *96:18 *656:A1 0.000354122
29 *99:24 *117:8 0.000486246
*RES
1 *718:X *117:8 28.8829 
2 *117:8 *720:A 23 
3 *718:X *117:22 39.9057 
4 *117:22 *737:B1 38.6214 
5 *117:22 *117:35 1.29464 
6 *117:35 *738:C1 42.4846 
7 *117:35 *656:A1 44.3386 
*END

*D_NET *118 0.00116492
*CONN
*I *720:B I *D sky130_fd_sc_hd__nor2_2
*I *654:A_N I *D sky130_fd_sc_hd__and2b_2
*I *719:Y O *D sky130_fd_sc_hd__nor2_2
*CAP
1 *720:B 0.000161859
2 *654:A_N 0.000158729
3 *719:Y 0
4 *118:6 0.000320588
5 *654:A_N *658:A 3.0647e-05
6 *654:A_N *119:10 6.22475e-05
7 *654:A_N *142:40 0.000102971
8 *720:B *657:C1 0
9 *720:B *119:8 2.93747e-05
10 *720:B *119:10 1.37246e-05
11 *720:B *119:79 1.22803e-05
12 *720:B *184:45 0.000163361
13 *60:10 *720:B 0
14 *62:10 *654:A_N 5.41288e-05
15 *62:10 *720:B 0
16 *117:8 *720:B 5.50049e-05
*RES
1 *719:Y *118:6 38 
2 *118:6 *654:A_N 41.7079 
3 *118:6 *720:B 41.5836 
*END

*D_NET *119 0.00738063
*CONN
*I *737:A1 I *D sky130_fd_sc_hd__a21oi_2
*I *738:A1 I *D sky130_fd_sc_hd__a211o_2
*I *656:B2 I *D sky130_fd_sc_hd__a22o_2
*I *721:B I *D sky130_fd_sc_hd__nor2_2
*I *736:A I *D sky130_fd_sc_hd__nand2_2
*I *722:B I *D sky130_fd_sc_hd__or2_2
*I *652:B I *D sky130_fd_sc_hd__nand2_2
*I *658:A I *D sky130_fd_sc_hd__or2_2
*I *720:Y O *D sky130_fd_sc_hd__nor2_2
*CAP
1 *737:A1 3.88672e-05
2 *738:A1 0
3 *656:B2 2.53581e-05
4 *721:B 0
5 *736:A 0.000179247
6 *722:B 0.000115869
7 *652:B 0.000166128
8 *658:A 0.000157759
9 *720:Y 0.00012572
10 *119:94 0.000160054
11 *119:81 0.000212836
12 *119:79 0.000249769
13 *119:63 0.000264256
14 *119:35 0.000397077
15 *119:29 0.000901322
16 *119:10 0.00104706
17 *119:8 0.000497264
18 *652:B *122:10 6.79006e-05
19 *656:B2 *176:50 8.1796e-05
20 *658:A *658:B 5.82853e-05
21 *658:A *134:21 0.000115851
22 *658:A *158:18 5.58003e-05
23 *722:B *120:14 0.000138727
24 *722:B *122:10 0.000118889
25 *722:B *176:54 0
26 *737:A1 *737:A2 5.50049e-05
27 *737:A1 *176:50 3.88863e-05
28 *119:8 *184:45 5.3304e-05
29 *119:10 *134:21 7.8128e-05
30 *119:10 *134:32 6.07929e-05
31 *119:10 *184:45 0.000136486
32 *119:29 *659:A1 3.20631e-05
33 *119:29 *142:40 3.7122e-06
34 *119:29 *176:54 0
35 *119:35 *172:8 0.000137651
36 *119:63 *120:8 1.24376e-05
37 *119:63 *176:54 0
38 *119:79 *657:C1 0
39 *119:79 *738:A2 1.22803e-05
40 *119:79 *134:32 0.000130158
41 *119:79 *176:35 0
42 *119:79 *184:45 2.46345e-05
43 *119:81 *176:50 4.6595e-05
44 *654:A_N *658:A 3.0647e-05
45 *654:A_N *119:10 6.22475e-05
46 *656:A1 *656:B2 0.000141954
47 *656:A1 *737:A1 0.000139357
48 *656:A1 *119:81 9.67842e-05
49 *720:B *119:8 2.93747e-05
50 *720:B *119:10 1.37246e-05
51 *720:B *119:79 1.22803e-05
52 *721:A *652:B 8.61691e-05
53 *721:A *722:B 3.62323e-05
54 *721:A *119:29 8.4047e-05
55 *721:A *119:63 8.4047e-05
56 *723:C_N *652:B 3.28357e-06
57 *32:29 *119:94 0
58 *56:14 *736:A 0.000445374
59 *56:14 *119:63 4.17736e-05
60 *58:10 *658:A 0
61 *96:18 *119:94 6.68793e-05
62 *117:8 *119:8 8.48502e-06
*RES
1 *720:Y *119:8 39.5743 
2 *119:8 *119:10 4.01857 
3 *119:10 *658:A 41.9357 
4 *119:10 *119:29 39.4457 
5 *119:29 *119:35 31.5743 
6 *119:35 *652:B 41.5007 
7 *119:35 *722:B 41.3143 
8 *119:29 *119:63 16.8229 
9 *119:63 *736:A 27.9093 
10 *119:63 *721:B 23 
11 *119:8 *119:79 19.0186 
12 *119:79 *119:81 1.09786 
13 *119:81 *656:B2 24.5743 
14 *119:81 *119:94 32.61 
15 *119:94 *738:A1 23 
16 *119:79 *737:A1 24.5743 
*END

*D_NET *120 0.00107241
*CONN
*I *653:A_N I *D sky130_fd_sc_hd__and3b_2
*I *667:C1 I *D sky130_fd_sc_hd__a211o_2
*I *721:Y O *D sky130_fd_sc_hd__nor2_2
*CAP
1 *653:A_N 0
2 *667:C1 0
3 *721:Y 8.67538e-05
4 *120:14 0.000187299
5 *120:8 0.000274052
6 *120:14 *122:10 9.18447e-05
7 *120:14 *176:54 0
8 *120:14 *184:35 0.000223043
9 *722:B *120:14 0.000138727
10 *56:14 *120:8 4.34973e-05
11 *99:24 *120:14 1.47563e-05
12 *119:63 *120:8 1.24376e-05
*RES
1 *721:Y *120:8 24.595 
2 *120:8 *120:14 35.4271 
3 *120:14 *667:C1 23 
4 *120:8 *653:A_N 23 
*END

*D_NET *121 0.000898454
*CONN
*I *723:B I *D sky130_fd_sc_hd__or3b_2
*I *722:X O *D sky130_fd_sc_hd__or2_2
*CAP
1 *723:B 0
2 *722:X 0.000305892
3 *121:10 0.000305892
4 *121:10 *123:8 9.48381e-06
5 *121:10 *159:18 9.84794e-05
6 *121:10 *179:62 4.23817e-05
7 *121:10 *179:72 9.13409e-05
8 *121:10 *184:10 0
9 *722:A *121:10 4.49829e-05
*RES
1 *722:X *121:10 43.4686 
2 *121:10 *723:B 38 
*END

*D_NET *122 0.00468908
*CONN
*I *727:A1 I *D sky130_fd_sc_hd__a31o_2
*I *672:A2 I *D sky130_fd_sc_hd__a41oi_2
*I *668:A2 I *D sky130_fd_sc_hd__a41o_2
*I *723:X O *D sky130_fd_sc_hd__or3b_2
*CAP
1 *727:A1 0
2 *672:A2 0
3 *668:A2 0
4 *723:X 8.8362e-05
5 *122:37 0.000118255
6 *122:29 0.000608083
7 *122:10 0.000899445
8 *122:8 0.000497979
9 *122:10 *179:62 0.000552151
10 *122:10 *179:72 9.94431e-05
11 *122:29 *727:A3 9.84794e-05
12 *122:29 *123:25 0.000133197
13 *122:29 *179:60 0.000676253
14 *122:29 *179:62 1.14452e-05
15 *122:37 *672:A3 0.000130433
16 *122:37 *123:25 1.14452e-05
17 *652:B *122:10 6.79006e-05
18 *721:A *122:10 7.99563e-06
19 *722:B *122:10 0.000118889
20 *723:C_N *122:8 6.17437e-06
21 *723:C_N *122:10 3.90213e-05
22 *727:B1 *122:37 7.03766e-05
23 *55:10 *122:8 1.47795e-05
24 *55:10 *122:10 0.000141888
25 *94:52 *122:37 4.6318e-06
26 *95:29 *122:29 0.000192087
27 *99:14 *122:29 0
28 *99:16 *122:10 0
29 *99:24 *122:10 0
30 *116:10 *122:10 8.52094e-06
31 *120:14 *122:10 9.18447e-05
*RES
1 *723:X *122:8 39.0979 
2 *122:8 *122:10 11.7657 
3 *122:10 *668:A2 38 
4 *122:10 *122:29 27.4907 
5 *122:29 *122:37 32.5271 
6 *122:37 *672:A2 23 
7 *122:29 *727:A1 23 
*END

*D_NET *123 0.00380665
*CONN
*I *672:A3 I *D sky130_fd_sc_hd__a41oi_2
*I *727:A2 I *D sky130_fd_sc_hd__a31o_2
*I *668:A3 I *D sky130_fd_sc_hd__a41o_2
*I *724:X O *D sky130_fd_sc_hd__or3b_2
*CAP
1 *672:A3 0.000127605
2 *727:A2 0
3 *668:A3 0
4 *724:X 0.000220107
5 *123:25 0.000572428
6 *123:12 0.000598672
7 *123:8 0.000373956
8 *672:A3 *126:8 7.03766e-05
9 *123:8 *687:A 0.000277705
10 *123:8 *159:12 0.000169683
11 *123:8 *179:62 0
12 *123:8 *184:10 5.03449e-05
13 *123:8 *184:23 0.000108569
14 *123:12 *687:A 9.67842e-05
15 *123:12 *185:6 4.6595e-05
16 *123:12 *185:16 0.000135143
17 *123:25 *126:8 6.07611e-06
18 *123:25 *179:60 0
19 *123:25 *185:16 0.000102488
20 *668:A4 *123:12 0.000136738
21 *668:A4 *123:25 4.95081e-05
22 *727:B1 *123:25 1.02387e-05
23 *762:A *123:8 0
24 *95:29 *123:25 9.28842e-05
25 *97:18 *123:25 0.000111148
26 *98:8 *123:8 6.7177e-06
27 *99:12 *123:25 7.91596e-05
28 *99:14 *123:25 7.91596e-05
29 *121:10 *123:8 9.48381e-06
30 *122:29 *123:25 0.000133197
31 *122:37 *672:A3 0.000130433
32 *122:37 *123:25 1.14452e-05
*RES
1 *724:X *123:8 44.8357 
2 *123:8 *123:12 18.9564 
3 *123:12 *668:A3 23 
4 *123:12 *123:25 25.5436 
5 *123:25 *727:A2 38 
6 *123:25 *672:A3 41.1486 
*END

*D_NET *124 0.00035375
*CONN
*I *726:A I *D sky130_fd_sc_hd__inv_2
*I *725:X O *D sky130_fd_sc_hd__and2b_2
*CAP
1 *726:A 3.43162e-05
2 *725:X 0.000120122
3 *124:8 0.000154438
4 *726:A *125:10 1.94693e-05
5 *124:8 *125:10 2.54046e-05
6 *124:8 *179:60 0
*RES
1 *725:X *124:8 40.2579 
2 *124:8 *726:A 38.6214 
*END

*D_NET *125 0.00125615
*CONN
*I *672:A4 I *D sky130_fd_sc_hd__a41oi_2
*I *727:A3 I *D sky130_fd_sc_hd__a31o_2
*I *726:Y O *D sky130_fd_sc_hd__inv_2
*CAP
1 *672:A4 0
2 *727:A3 0.000218005
3 *726:Y 0.000194691
4 *125:10 0.000412696
5 *727:A3 *725:B 8.51432e-05
6 *727:A3 *179:60 8.51432e-05
7 *125:10 *725:B 3.55887e-05
8 *125:10 *179:60 8.15327e-05
9 *726:A *125:10 1.94693e-05
10 *122:29 *727:A3 9.84794e-05
11 *124:8 *125:10 2.54046e-05
*RES
1 *726:Y *125:10 41.8321 
2 *125:10 *727:A3 42.785 
3 *125:10 *672:A4 38 
*END

*D_NET *126 0.00787965
*CONN
*I *680:B I *D sky130_fd_sc_hd__nand3_2
*I *729:A1 I *D sky130_fd_sc_hd__a21o_2
*I *671:B I *D sky130_fd_sc_hd__nand2_2
*I *727:X O *D sky130_fd_sc_hd__a31o_2
*CAP
1 *680:B 0
2 *729:A1 0
3 *671:B 2.63624e-05
4 *727:X 0.000192311
5 *126:51 9.28669e-05
6 *126:45 0.00035585
7 *126:35 0.00136535
8 *126:27 0.00178545
9 *126:12 0.000781858
10 *126:8 0.000264724
11 *671:B *179:60 5.50049e-05
12 *126:8 *179:60 0.000192681
13 *126:12 *179:60 0.000183733
14 *126:27 *776:A 0.000128401
15 *126:35 *679:B 0.000877952
16 *126:35 *174:8 8.62876e-05
17 *126:35 *179:41 0.000669062
18 *126:45 *127:8 6.15872e-05
19 *126:45 *127:12 9.8203e-05
20 *126:45 *127:20 9.84851e-05
21 *126:45 *142:63 0.000123819
22 *126:45 *161:10 0
23 *126:45 *175:8 4.21594e-06
24 *126:51 *127:20 0.000141975
25 *672:A3 *126:8 7.03766e-05
26 *72:10 *671:B 3.7122e-06
27 *82:8 *126:45 0.000213311
28 *94:52 *126:8 0
29 *123:25 *126:8 6.07611e-06
*RES
1 *727:X *126:8 43.075 
2 *126:8 *126:12 17.0507 
3 *126:12 *671:B 23.6214 
4 *126:12 *126:27 39.6736 
5 *126:27 *126:35 48.4979 
6 *126:35 *126:45 36.6907 
7 *126:45 *126:51 31.9057 
8 *126:51 *729:A1 23 
9 *126:45 *680:B 23 
*END

*D_NET *127 0.00115468
*CONN
*I *680:C I *D sky130_fd_sc_hd__nand3_2
*I *729:A2 I *D sky130_fd_sc_hd__a21o_2
*I *728:Y O *D sky130_fd_sc_hd__nand2b_2
*CAP
1 *680:C 0
2 *729:A2 0
3 *728:Y 0.000120623
4 *127:20 0.000124579
5 *127:12 0.000216694
6 *127:8 0.000212738
7 *127:12 *142:63 2.93985e-05
8 *82:8 *127:8 5.44889e-06
9 *82:8 *127:20 4.49481e-05
10 *126:45 *127:8 6.15872e-05
11 *126:45 *127:12 9.8203e-05
12 *126:45 *127:20 9.84851e-05
13 *126:51 *127:20 0.000141975
*RES
1 *728:Y *127:8 40.2579 
2 *127:8 *127:12 17.0507 
3 *127:12 *127:20 33.3557 
4 *127:20 *729:A2 23 
5 *127:12 *680:C 23 
*END

*D_NET *128 0.00148715
*CONN
*I *685:A2 I *D sky130_fd_sc_hd__a31o_2
*I *744:A3 I *D sky130_fd_sc_hd__a32o_2
*I *729:X O *D sky130_fd_sc_hd__a21o_2
*CAP
1 *685:A2 0
2 *744:A3 0.000317884
3 *729:X 0.000237525
4 *128:21 8.63789e-05
5 *128:6 0.000641788
6 *744:A3 *744:B1 5.67058e-05
7 *128:21 *685:A1 4.6318e-06
8 *692:B *744:A3 5.50106e-05
9 *84:8 *128:21 3.39231e-05
10 *91:25 *128:6 5.3304e-05
11 *91:25 *128:21 0
*RES
1 *729:X *128:6 26.9564 
2 *128:6 *744:A3 28.7586 
3 *128:6 *128:21 31.5536 
4 *128:21 *685:A2 23 
*END

*D_NET *129 0.00049967
*CONN
*I *735:B1 I *D sky130_fd_sc_hd__o21ai_2
*I *730:Y O *D sky130_fd_sc_hd__nand2_2
*CAP
1 *735:B1 0
2 *730:Y 0.000153209
3 *129:10 0.000153209
4 *129:10 *158:48 0.000135616
5 *129:10 *183:26 5.76359e-05
*RES
1 *730:Y *129:10 41.0036 
2 *129:10 *735:B1 38 
*END

*D_NET *130 0.00581577
*CONN
*I *646:C I *D sky130_fd_sc_hd__or3_2
*I *643:B I *D sky130_fd_sc_hd__nand2_2
*I *642:B I *D sky130_fd_sc_hd__or2_2
*I *641:A I *D sky130_fd_sc_hd__xnor2_2
*I *735:A1 I *D sky130_fd_sc_hd__o21ai_2
*I *731:Y O *D sky130_fd_sc_hd__nor2_2
*CAP
1 *646:C 0
2 *643:B 0
3 *642:B 0
4 *641:A 0.000288856
5 *735:A1 0.0010342
6 *731:Y 2.48327e-05
7 *130:57 0.000116669
8 *130:51 0.000894727
9 *130:21 0.000365832
10 *130:17 0.000353676
11 *130:6 0.000557676
12 *735:A1 *134:10 7.61229e-06
13 *735:A1 *158:48 5.5792e-05
14 *130:21 *176:64 0
15 *130:51 *148:23 9.77405e-05
16 *130:51 *158:48 0.000293644
17 *130:57 *646:B 2.39877e-05
18 *130:57 *648:A3 7.41295e-05
19 *130:57 *148:27 1.46784e-05
20 *643:A *130:17 6.07611e-06
21 *643:A *130:21 8.76088e-05
22 *649:C_N *130:51 0.000405224
23 *45:10 *641:A 3.22879e-05
24 *45:10 *130:17 0.000139102
25 *45:10 *130:21 7.03766e-05
26 *47:8 *130:17 1.99722e-05
27 *48:10 *130:51 1.84831e-05
28 *53:10 *735:A1 0.000559895
29 *53:10 *130:6 4.33627e-05
30 *53:10 *130:51 7.04464e-05
31 *102:30 *130:17 0.000158882
32 *115:8 *130:17 0
*RES
1 *731:Y *130:6 23.6214 
2 *130:6 *735:A1 30.2914 
3 *130:6 *130:17 20.7793 
4 *130:17 *130:21 17.2579 
5 *130:21 *641:A 28.4064 
6 *130:21 *642:B 23 
7 *130:17 *643:B 38 
8 *735:A1 *130:51 38.4114 
9 *130:51 *130:57 32.61 
10 *130:57 *646:C 23 
*END

*D_NET *131 0.00165931
*CONN
*I *613:A0 I *D sky130_fd_sc_hd__mux2_1
*I *631:B I *D sky130_fd_sc_hd__xor2_2
*I *732:Y O *D sky130_fd_sc_hd__nand2_2
*CAP
1 *613:A0 0
2 *631:B 0.000629737
3 *732:Y 0.000130397
4 *131:18 0.000499339
5 *631:B *732:B 7.42591e-05
6 *131:18 *143:16 0.000140884
7 *131:18 *188:16 0
8 *131:18 *188:29 0.00011035
9 *131:18 *188:40 0
10 Y[0] *131:18 0
11 *765:A *131:18 7.43456e-05
12 *1:15 *131:18 0
*RES
1 *732:Y *631:B 25.8275 
2 *631:B *131:18 38.1614 
3 *131:18 *613:A0 23 
*END

*D_NET *132 0.00229826
*CONN
*I *734:A2 I *D sky130_fd_sc_hd__a21oi_2
*I *633:B I *D sky130_fd_sc_hd__xnor2_2
*I *733:X O *D sky130_fd_sc_hd__a31o_2
*CAP
1 *734:A2 0
2 *633:B 0.000114083
3 *733:X 0.000340967
4 *132:20 0.000114083
5 *132:6 0.000340967
6 *132:6 *153:12 0.000124407
7 *132:20 *133:10 0
8 *132:20 *170:10 0
9 *132:20 *177:30 6.07611e-06
10 *132:20 *177:41 9.88678e-05
11 *733:A3 *132:6 5.3304e-05
12 *733:B1 *132:6 0.000144494
13 *108:8 *132:6 0.00096101
*RES
1 *733:X *132:6 33.6264 
2 *132:6 *633:B 23 
3 *633:B *132:20 40.61 
4 *132:20 *734:A2 38 
*END

*D_NET *133 0.0032838
*CONN
*I *641:B I *D sky130_fd_sc_hd__xnor2_2
*I *735:A2 I *D sky130_fd_sc_hd__o21ai_2
*I *734:Y O *D sky130_fd_sc_hd__a21oi_2
*CAP
1 *641:B 0.000107933
2 *735:A2 0
3 *734:Y 0.000250268
4 *133:20 0.000481225
5 *133:14 0.000824134
6 *133:10 0.000485243
7 *133:10 *157:31 5.67058e-05
8 *133:10 *177:41 0
9 *133:14 *638:A2 9.72224e-05
10 *133:20 *640:A1 0
11 *133:20 *142:40 0
12 *133:20 *158:48 4.41923e-05
13 *133:20 *176:64 0
14 *42:10 *133:14 9.41704e-05
15 *43:10 *641:B 0.000128723
16 *43:10 *133:14 0.000401899
17 *109:22 *133:10 0.000312088
18 *132:20 *133:10 0
*RES
1 *734:Y *133:10 42.9921 
2 *133:10 *133:14 21.3386 
3 *133:14 *133:20 38.9486 
4 *133:20 *735:A2 23 
5 *133:14 *641:B 25.5479 
*END

*D_NET *134 0.00363856
*CONN
*I *738:A2 I *D sky130_fd_sc_hd__a211o_2
*I *737:A2 I *D sky130_fd_sc_hd__a21oi_2
*I *736:B I *D sky130_fd_sc_hd__nand2_2
*I *658:B I *D sky130_fd_sc_hd__or2_2
*I *735:Y O *D sky130_fd_sc_hd__o21ai_2
*CAP
1 *738:A2 0.000237749
2 *737:A2 1.50079e-05
3 *736:B 1.49804e-05
4 *658:B 5.99221e-05
5 *735:Y 0.000171597
6 *134:32 0.000515492
7 *134:21 0.000506123
8 *134:10 0.000459926
9 *658:B *158:18 4.69418e-05
10 *736:B *719:A 5.50106e-05
11 *737:A2 *176:50 5.50049e-05
12 *738:A2 *185:16 0.000265439
13 *134:10 *158:48 1.61385e-05
14 *134:21 *135:8 8.12709e-05
15 *134:32 *718:A 5.24393e-05
16 *134:32 *719:A 8.85189e-05
17 *658:A *658:B 5.82853e-05
18 *658:A *134:21 0.000115851
19 *735:A1 *134:10 7.61229e-06
20 *737:A1 *737:A2 5.50049e-05
21 *738:C1 *738:A2 0.000108499
22 *56:14 *736:B 5.50106e-05
23 *61:8 *134:21 0.000140036
24 *68:18 *738:A2 9.0102e-05
25 *96:10 *738:A2 1.83564e-05
26 *96:18 *738:A2 6.68793e-05
27 *117:22 *134:32 0
28 *119:10 *134:21 7.8128e-05
29 *119:10 *134:32 6.07929e-05
30 *119:79 *738:A2 1.22803e-05
31 *119:79 *134:32 0.000130158
*RES
1 *735:Y *134:10 41.2314 
2 *134:10 *658:B 39.5743 
3 *134:10 *134:21 5.77929 
4 *134:21 *736:B 38.6214 
5 *134:21 *134:32 5.42714 
6 *134:32 *737:A2 38.6214 
7 *134:32 *738:A2 44.3386 
*END

*D_NET *135 0.000459859
*CONN
*I *659:A1 I *D sky130_fd_sc_hd__a21o_2
*I *736:Y O *D sky130_fd_sc_hd__nand2_2
*CAP
1 *659:A1 6.54816e-05
2 *736:Y 0.000107781
3 *135:8 0.000173262
4 *135:8 *176:54 0
5 *119:29 *659:A1 3.20631e-05
6 *134:21 *135:8 8.12709e-05
*RES
1 *736:Y *135:8 40.2579 
2 *135:8 *659:A1 39.0979 
*END

*D_NET *136 0.00106445
*CONN
*I *661:B I *D sky130_fd_sc_hd__or2_2
*I *662:B I *D sky130_fd_sc_hd__nand2_2
*I *737:Y O *D sky130_fd_sc_hd__a21oi_2
*CAP
1 *661:B 0.000192477
2 *662:B 3.72901e-05
3 *737:Y 8.85601e-05
4 *136:8 0.000318328
5 *661:B *669:A1 0
6 *662:B *185:16 0.000103647
7 *136:8 *669:A1 0
8 *738:C1 *136:8 0.000138718
9 *68:18 *662:B 0.000185434
10 *70:10 *661:B 0
11 *96:10 *661:B 0
*RES
1 *737:Y *136:8 39.9057 
2 *136:8 *662:B 40.0507 
3 *136:8 *661:B 41.3143 
*END

*D_NET *137 0.00257655
*CONN
*I *740:A3 I *D sky130_fd_sc_hd__a31o_2
*I *739:B I *D sky130_fd_sc_hd__nand2_2
*I *738:X O *D sky130_fd_sc_hd__a211o_2
*CAP
1 *740:A3 0.00033953
2 *739:B 7.19483e-05
3 *738:X 0.000322947
4 *137:10 0.000734425
5 *740:A3 *138:10 0
6 *740:A3 *139:10 5.41385e-05
7 *137:10 *185:16 2.30292e-05
8 *32:29 *740:A3 0.000155077
9 *32:29 *137:10 0.000604008
10 *94:20 *740:A3 5.97178e-05
11 *94:35 *740:A3 2.62931e-05
12 *96:10 *137:10 0
13 *97:31 *739:B 0.000185434
*RES
1 *738:X *137:10 46.5136 
2 *137:10 *739:B 40.0507 
3 *137:10 *740:A3 44.2143 
*END

*D_NET *138 0.000881654
*CONN
*I *670:B I *D sky130_fd_sc_hd__xnor2_2
*I *739:Y O *D sky130_fd_sc_hd__nand2_2
*CAP
1 *670:B 0
2 *739:Y 0.000306497
3 *138:10 0.000306497
4 *138:10 *142:71 2.49733e-05
5 *138:10 *174:8 4.48671e-05
6 *740:A3 *138:10 0
7 *32:29 *138:10 0
8 *94:35 *138:10 0.000166532
9 *97:18 *138:10 3.22879e-05
*RES
1 *739:Y *138:10 43.6964 
2 *138:10 *670:B 38 
*END

*D_NET *139 0.00463559
*CONN
*I *741:A2 I *D sky130_fd_sc_hd__a21o_2
*I *679:B I *D sky130_fd_sc_hd__xor2_2
*I *740:X O *D sky130_fd_sc_hd__a31o_2
*CAP
1 *741:A2 0
2 *679:B 0.000648751
3 *740:X 0.00018796
4 *139:34 0.000151543
5 *139:10 0.000685169
6 *679:B *694:A 0.00014196
7 *679:B *728:B 0.000119199
8 *679:B *179:41 0.000195587
9 *139:10 *142:63 0.000111852
10 *139:10 *154:96 0.000188926
11 *139:10 *186:10 0
12 *139:34 *685:A1 9.27917e-05
13 *139:34 *179:10 2.80493e-05
14 *679:A *139:34 0.000203653
15 *686:B1 *679:B 0.00018701
16 *686:B2 *679:B 0.000319358
17 *740:A3 *139:10 5.41385e-05
18 *74:8 *139:10 2.49733e-05
19 *84:8 *139:34 1.14452e-05
20 *91:8 *139:34 3.70094e-05
21 *92:14 *679:B 0.000228909
22 *92:14 *139:10 0
23 *94:20 *139:10 0.000139352
24 *126:35 *679:B 0.000877952
*RES
1 *740:X *139:10 42.8886 
2 *139:10 *679:B 31.7682 
3 *679:B *139:34 34.3604 
4 *139:34 *741:A2 23 
*END

*D_NET *140 0.000636227
*CONN
*I *744:B1 I *D sky130_fd_sc_hd__a32o_2
*I *741:X O *D sky130_fd_sc_hd__a21o_2
*CAP
1 *744:B1 0.00013548
2 *741:X 6.63811e-05
3 *140:8 0.000201861
4 *741:B1 *140:8 8.05114e-05
5 *744:A3 *744:B1 5.67058e-05
6 *778:A *140:8 8.51432e-05
7 *89:18 *140:8 1.01436e-05
*RES
1 *741:X *140:8 40.2579 
2 *140:8 *744:B1 40.1543 
*END

*D_NET *141 0.011307
*CONN
*I *766:A I *D sky130_fd_sc_hd__clkbuf_2
*I *682:B1 I *D sky130_fd_sc_hd__a21o_2
*I *649:A I *D sky130_fd_sc_hd__or3b_2
*I *630:D1 I *D sky130_fd_sc_hd__a2111o_2
*I *744:B2 I *D sky130_fd_sc_hd__a32o_2
*I *742:Y O *D sky130_fd_sc_hd__nor3_2
*CAP
1 *766:A 4.70728e-05
2 *682:B1 4.50975e-05
3 *649:A 0.000196389
4 *630:D1 0.000285186
5 *744:B2 0.000409407
6 *742:Y 0.000288368
7 *141:65 0.000647263
8 *141:33 0.00103891
9 *141:29 0.0011595
10 *141:27 0.000689714
11 *141:8 0.00134042
12 *630:D1 *142:10 6.21384e-06
13 *630:D1 *142:25 5.79559e-05
14 *630:D1 *155:42 0.00018974
15 *630:D1 *155:44 0.000112396
16 *649:A *619:A3 3.7122e-06
17 *649:A *619:B1 0.000624056
18 *649:A *148:23 0.000101616
19 *682:B1 *675:A1 4.60777e-05
20 *682:B1 *146:107 7.87243e-05
21 *744:B2 *690:A 8.23113e-05
22 *744:B2 *162:8 8.26312e-05
23 *744:B2 *162:10 6.46393e-05
24 *141:8 *143:16 2.60152e-05
25 *141:8 *165:20 0.000131878
26 *141:8 *181:10 0
27 *141:8 *182:108 0.000246748
28 *141:27 *690:A 5.67058e-05
29 *141:27 *690:B 7.13587e-05
30 *141:27 *181:10 0.00018282
31 *141:33 *142:10 0.00115165
32 *141:33 *142:55 0.000111852
33 *141:33 *148:8 0.000310886
34 *141:33 *148:79 0
35 *141:33 *154:72 0
36 *141:33 *165:79 0.000114083
37 *141:33 *180:20 2.09183e-05
38 *141:33 *181:46 0.000139647
39 *141:33 *181:69 0
40 *141:33 *182:81 2.37498e-05
41 *141:65 *142:55 0.000285192
42 *141:65 *154:72 0
43 *141:65 *154:81 9.75388e-05
44 *649:C_N *649:A 0.000406869
45 *683:B1 *682:B1 5.3304e-05
46 *683:B1 *141:65 0.000108681
47 *16:11 *744:B2 0
48 *18:11 *744:B2 0
49 *18:11 *141:8 0
50 *88:10 *744:B2 0
51 *88:10 *141:8 0
52 *88:10 *141:27 0
53 *89:8 *744:B2 0.000169674
*RES
1 *742:Y *141:8 44.3075 
2 *141:8 *744:B2 47.7461 
3 *141:8 *141:27 26.5689 
4 *141:27 *141:29 15 
5 *141:29 *141:33 17.9696 
6 *141:33 *630:D1 43.1682 
7 *141:33 *649:A 46.0889 
8 *141:29 *141:65 40.7093 
9 *141:65 *682:B1 39.5743 
10 *141:27 *766:A 23.6214 
*END

*D_NET *142 0.017184
*CONN
*I *686:A1 I *D sky130_fd_sc_hd__o22a_2
*I *678:A1 I *D sky130_fd_sc_hd__o22a_2
*I *659:B1 I *D sky130_fd_sc_hd__a21o_2
*I *640:A1 I *D sky130_fd_sc_hd__o22a_2
*I *632:B2 I *D sky130_fd_sc_hd__o22a_2
*I *743:X O *D sky130_fd_sc_hd__or3_2
*CAP
1 *686:A1 0.000126525
2 *678:A1 2.5164e-05
3 *659:B1 0
4 *640:A1 0.000368334
5 *632:B2 0.000186879
6 *743:X 4.55529e-05
7 *142:71 0.000684298
8 *142:63 0.00172148
9 *142:55 0.00187997
10 *142:40 0.000758521
11 *142:25 0.00216855
12 *142:12 0.00122858
13 *142:10 0.000655192
14 *142:6 0.00139184
15 *640:A1 *177:71 0
16 *142:6 *625:C_N 2.93747e-05
17 *142:10 *732:B 3.6608e-05
18 *142:10 *154:12 0.000209041
19 *142:10 *154:72 7.87799e-05
20 *142:10 *155:12 0.00014083
21 *142:10 *155:42 5.77452e-05
22 *142:25 *630:A2 0.000230653
23 *142:25 *630:B1 0.000187968
24 *142:25 *149:47 0.000317431
25 *142:25 *177:71 2.94414e-05
26 *142:40 *177:71 0
27 *142:55 *625:C_N 4.34973e-05
28 *142:55 *685:A1 0
29 *142:55 *180:20 0.000547499
30 *142:63 *693:A 1.94812e-05
31 *142:71 *154:96 5.3304e-05
32 *142:71 *179:41 0.000314836
33 *628:B2 *142:10 0.000193203
34 *630:D1 *142:10 6.21384e-06
35 *630:D1 *142:25 5.79559e-05
36 *632:A2 *632:B2 0.000138444
37 *632:A2 *142:25 4.17736e-05
38 *654:A_N *142:40 0.000102971
39 *680:A *142:63 3.7122e-06
40 *685:A3 *142:63 9.87985e-06
41 *712:A_N *640:A1 0
42 *33:10 *142:10 0.000193203
43 *43:10 *640:A1 0
44 *58:10 *142:40 3.13952e-05
45 *62:10 *142:40 4.5857e-05
46 *71:8 *142:71 0
47 *72:10 *142:71 0
48 *73:8 *678:A1 5.50106e-05
49 *74:8 *142:63 8.62876e-05
50 *81:10 *142:55 0
51 *85:10 *686:A1 0
52 *85:10 *142:55 0
53 *91:25 *142:55 0.000188926
54 *92:6 *142:63 1.59094e-05
55 *92:14 *142:63 0
56 *93:12 *142:63 1.94812e-05
57 *93:19 *142:63 3.53115e-05
58 *94:20 *142:63 0.000141052
59 *94:35 *142:71 0.000139657
60 *94:52 *142:71 2.64616e-05
61 *109:22 *640:A1 0
62 *111:8 *142:25 0.000271476
63 *119:29 *142:40 3.7122e-06
64 *126:45 *142:63 0.000123819
65 *127:12 *142:63 2.93985e-05
66 *133:20 *640:A1 0
67 *133:20 *142:40 0
68 *138:10 *142:71 2.49733e-05
69 *139:10 *142:63 0.000111852
70 *141:33 *142:10 0.00115165
71 *141:33 *142:55 0.000111852
72 *141:65 *142:55 0.000285192
*RES
1 *743:X *142:6 23.6214 
2 *142:6 *142:10 35.2171 
3 *142:10 *142:12 15 
4 *142:12 *632:B2 26.3764 
5 *142:12 *142:25 34.2021 
6 *142:25 *640:A1 44.1314 
7 *142:25 *142:40 29.1893 
8 *142:40 *659:B1 23 
9 *142:6 *142:55 31.095 
10 *142:55 *142:63 45.0386 
11 *142:63 *142:71 42.76 
12 *142:71 *678:A1 38.6214 
13 *142:55 *686:A1 39.9057 
*END

*D_NET *143 0.00287683
*CONN
*I *615:B I *D sky130_fd_sc_hd__or2_2
*I *614:B1 I *D sky130_fd_sc_hd__o211a_2
*I *612:Y O *D sky130_fd_sc_hd__nand2_2
*CAP
1 *615:B 0.000131998
2 *614:B1 0
3 *612:Y 0.000116714
4 *143:16 0.00043214
5 *143:8 0.000680852
6 *615:B *615:A 1.4345e-05
7 *615:B *689:A 5.90675e-06
8 *615:B *164:12 9.45591e-05
9 *615:B *165:29 0.000173452
10 *615:B *165:40 4.5051e-05
11 *615:B *181:31 0.000188738
12 *143:8 *612:B 5.3304e-05
13 *143:8 *165:29 4.34876e-05
14 *143:16 *613:A1 8.68472e-05
15 *143:16 *742:B 0
16 *143:16 *144:8 6.67651e-05
17 *143:16 *164:8 0.000295096
18 *143:16 *181:12 0
19 *143:16 *182:8 4.99753e-06
20 *143:16 *182:108 0.000219882
21 *1:15 *143:16 5.5792e-05
22 *20:15 *143:16 0
23 *88:34 *143:16 0
24 *131:18 *143:16 0.000140884
25 *141:8 *143:16 2.60152e-05
*RES
1 *612:Y *143:8 25.0714 
2 *143:8 *143:16 41.6829 
3 *143:16 *614:B1 23 
4 *143:8 *615:B 27.93 
*END

*D_NET *144 0.000347424
*CONN
*I *614:C1 I *D sky130_fd_sc_hd__o211a_2
*I *613:X O *D sky130_fd_sc_hd__mux2_1
*CAP
1 *614:C1 2.52835e-05
2 *613:X 8.59031e-05
3 *144:8 0.000111187
4 *1:15 *614:C1 5.82853e-05
5 *143:16 *144:8 6.67651e-05
*RES
1 *613:X *144:8 39.9057 
2 *144:8 *614:C1 38.6214 
*END

*D_NET *145 0.00057611
*CONN
*I *620:A I *D sky130_fd_sc_hd__or3_2
*I *614:X O *D sky130_fd_sc_hd__o211a_2
*CAP
1 *620:A 0.00010116
2 *614:X 0.000110214
3 *145:8 0.000211373
4 *620:A *181:88 0.000101506
5 *145:8 *168:8 5.18573e-05
*RES
1 *614:X *145:8 40.2579 
2 *145:8 *620:A 40.0507 
*END

*D_NET *146 0.0141255
*CONN
*I *655:A2_N I *D sky130_fd_sc_hd__a2bb2o_2
*I *674:A2 I *D sky130_fd_sc_hd__o21ai_2
*I *683:A2_N I *D sky130_fd_sc_hd__a2bb2o_2
*I *664:A2_N I *D sky130_fd_sc_hd__a2bb2o_2
*I *645:B I *D sky130_fd_sc_hd__nor2_2
*I *635:B I *D sky130_fd_sc_hd__nor2_2
*I *629:A2_N I *D sky130_fd_sc_hd__a2bb2o_2
*I *616:B I *D sky130_fd_sc_hd__nor2_2
*I *615:X O *D sky130_fd_sc_hd__or2_2
*CAP
1 *655:A2_N 0
2 *674:A2 4.01156e-05
3 *683:A2_N 0
4 *664:A2_N 0
5 *645:B 0
6 *635:B 5.09974e-05
7 *629:A2_N 0.000666994
8 *616:B 0.000126261
9 *615:X 0.000364799
10 *146:107 0.000483443
11 *146:89 0.000933113
12 *146:76 0.00095634
13 *146:68 0.000770543
14 *146:29 0.000844358
15 *146:27 0.00047902
16 *146:23 0.00166924
17 *146:8 0.00158389
18 *616:B *147:8 4.95928e-05
19 *616:B *150:8 0.000140036
20 *616:B *155:8 0.000102971
21 *616:B *155:93 2.95526e-05
22 *629:A2_N *637:A1 0.000328357
23 *629:A2_N *637:A2 0.000136486
24 *629:A2_N *637:B1 6.4393e-05
25 *635:B *149:47 0.0002263
26 *635:B *177:47 0.000206368
27 *146:8 *746:A 8.41012e-05
28 *146:8 *147:8 6.94552e-05
29 *146:8 *150:8 5.52801e-05
30 *146:8 *154:12 0
31 *146:23 *151:29 0.000306822
32 *146:23 *181:88 0.000160006
33 *146:27 *648:B2 2.99613e-05
34 *146:27 *655:B2 4.7088e-05
35 *146:27 *154:23 1.16455e-05
36 *146:27 *183:34 0.000213897
37 *146:29 *637:A2 9.75975e-05
38 *146:29 *637:B1 6.87915e-05
39 *146:29 *154:23 4.53779e-05
40 *146:29 *183:34 5.75756e-06
41 *146:68 *151:29 2.95526e-05
42 *146:68 *151:40 4.22172e-05
43 *146:68 *184:63 6.1789e-05
44 *146:76 *666:A1 0
45 *146:76 *149:103 2.76611e-06
46 *146:76 *149:118 8.72173e-05
47 *146:76 *154:63 0
48 *146:76 *184:59 0
49 *146:76 *184:80 0
50 *146:76 *185:50 0.000193264
51 *146:89 *149:103 0.00020314
52 *146:89 *176:35 0
53 *146:89 *180:49 0.00029741
54 *146:89 *185:50 6.07611e-06
55 *146:89 *186:29 0
56 *146:107 *675:A1 8.15639e-05
57 *146:107 *682:A1 0.000106445
58 *146:107 *683:A1_N 5.67554e-06
59 *146:107 *180:49 0.000316339
60 *146:107 *186:29 0
61 *627:B *629:A2_N 0
62 *637:B2 *629:A2_N 8.13269e-06
63 *664:B2 *146:89 0.000189318
64 *676:B1 *674:A2 0
65 *676:B1 *146:89 0.00018282
66 *682:B1 *146:107 7.87243e-05
67 *683:B1 *146:107 1.03836e-05
68 *31:31 *146:76 0.000236537
69 *59:10 *146:76 0
70 *60:10 *146:76 0
71 *65:10 *146:76 0
72 *66:8 *146:76 3.88244e-05
73 *76:10 *146:89 0.000108681
74 *88:34 *146:8 0.000193007
75 *91:40 *146:107 5.56279e-05
76 *110:43 *629:A2_N 0.000141052
*RES
1 *615:X *146:8 46.9486 
2 *146:8 *616:B 41.48 
3 *146:8 *146:23 29.4379 
4 *146:23 *146:27 22.54 
5 *146:27 *146:29 3.31429 
6 *146:29 *629:A2_N 49.2893 
7 *146:29 *635:B 40.5271 
8 *146:27 *645:B 38 
9 *146:23 *146:68 3.52143 
10 *146:68 *146:76 27.18 
11 *146:76 *664:A2_N 38 
12 *146:76 *146:89 26.7243 
13 *146:89 *146:107 41.5845 
14 *146:107 *683:A2_N 23 
15 *146:89 *674:A2 23.8493 
16 *146:68 *655:A2_N 23 
*END

*D_NET *147 0.000833682
*CONN
*I *620:B I *D sky130_fd_sc_hd__or3_2
*I *616:Y O *D sky130_fd_sc_hd__nor2_2
*CAP
1 *620:B 0.000107668
2 *616:Y 0.000121032
3 *147:8 0.0002287
4 *620:B *181:88 0.000139352
5 *147:8 *154:12 0.000117883
6 *616:B *147:8 4.95928e-05
7 *146:8 *147:8 6.94552e-05
*RES
1 *616:Y *147:8 41.3143 
2 *147:8 *620:B 39.5743 
*END

*D_NET *148 0.00964906
*CONN
*I *768:A I *D sky130_fd_sc_hd__buf_1
*I *648:A3 I *D sky130_fd_sc_hd__a32o_2
*I *638:A2 I *D sky130_fd_sc_hd__a221o_2
*I *629:B1 I *D sky130_fd_sc_hd__a2bb2o_2
*I *619:A3 I *D sky130_fd_sc_hd__a32o_2
*I *617:Y O *D sky130_fd_sc_hd__nor3b_2
*CAP
1 *768:A 3.21736e-05
2 *648:A3 0.000310073
3 *638:A2 0.00045794
4 *629:B1 0
5 *619:A3 0.000236917
6 *617:Y 0.000712868
7 *148:79 0.000319299
8 *148:37 0.000209474
9 *148:27 0.00121046
10 *148:23 0.00129484
11 *148:10 0.000678634
12 *148:8 0.000425743
13 *619:A3 *619:B1 4.91189e-05
14 *638:A2 *637:A1 1.14154e-05
15 *638:A2 *637:A2 3.49686e-05
16 *638:A2 *638:B2 3.02431e-05
17 *638:A2 *149:47 6.99569e-05
18 *648:A3 *648:A1 4.98295e-05
19 *648:A3 *648:B1 0.00026785
20 *648:A3 *149:10 2.51382e-05
21 *648:A3 *149:12 0.000139865
22 *768:A *180:56 2.64616e-05
23 *148:8 *165:79 8.62876e-05
24 *148:27 *630:B1 0
25 *148:27 *149:12 9.72241e-05
26 *148:27 *149:16 0.00037141
27 *148:37 *630:B1 6.16439e-05
28 *148:37 *637:A1 5.3304e-05
29 *148:79 *618:A 0.000140927
30 *148:79 *151:74 0.000290634
31 *148:79 *181:46 0
32 *148:79 *181:69 5.86204e-05
33 *627:B *638:A2 0.000269781
34 *627:B *148:37 0.000284343
35 *649:A *619:A3 3.7122e-06
36 *649:A *148:23 0.000101616
37 *649:C_N *148:23 9.59004e-05
38 *31:8 *768:A 2.64616e-05
39 *31:41 *638:A2 0.000136738
40 *40:8 *148:27 6.15872e-05
41 *42:10 *638:A2 0.000164191
42 *110:43 *638:A2 0.000156759
43 *130:51 *148:23 9.77405e-05
44 *130:57 *648:A3 7.41295e-05
45 *130:57 *148:27 1.46784e-05
46 *133:14 *638:A2 9.72224e-05
47 *141:33 *148:8 0.000310886
48 *141:33 *148:79 0
*RES
1 *617:Y *148:8 47.6529 
2 *148:8 *148:10 15 
3 *148:10 *619:A3 26.3764 
4 *148:10 *148:23 21.3386 
5 *148:23 *148:27 25.3571 
6 *148:27 *148:37 33.9979 
7 *148:37 *629:B1 23 
8 *148:27 *638:A2 34.3359 
9 *148:23 *648:A3 45.1671 
10 *617:Y *148:79 43.5929 
11 *148:79 *768:A 38.6214 
*END

*D_NET *149 0.0125647
*CONN
*I *657:A2 I *D sky130_fd_sc_hd__a211o_2
*I *675:A2 I *D sky130_fd_sc_hd__a22o_2
*I *666:A2 I *D sky130_fd_sc_hd__a221o_2
*I *648:B1 I *D sky130_fd_sc_hd__a32o_2
*I *619:B1 I *D sky130_fd_sc_hd__a32o_2
*I *638:B1 I *D sky130_fd_sc_hd__a221o_2
*I *630:A2 I *D sky130_fd_sc_hd__a2111o_2
*I *618:X O *D sky130_fd_sc_hd__and3_2
*CAP
1 *657:A2 0
2 *675:A2 0
3 *666:A2 0
4 *648:B1 0.000118041
5 *619:B1 0.000540933
6 *638:B1 0
7 *630:A2 0.000112396
8 *618:X 0.000140363
9 *149:118 0.000419427
10 *149:103 0.000390164
11 *149:84 0.000614658
12 *149:76 0.00081329
13 *149:47 0.000498999
14 *149:16 0.000825426
15 *149:12 0.000892682
16 *149:10 0.000704957
17 *149:6 0.000758932
18 *619:B1 *619:A1 3.80615e-05
19 *619:B1 *619:A2 5.3304e-05
20 *619:B1 *155:42 0.000183547
21 *630:A2 *630:A1 0.000256192
22 *630:A2 *630:B1 5.50049e-05
23 *630:A2 *635:A 1.12349e-05
24 *630:A2 *177:47 5.25436e-05
25 *149:10 *648:B2 5.30705e-05
26 *149:10 *151:74 0
27 *149:10 *184:80 0.000135301
28 *149:16 *637:B1 0
29 *149:47 *638:B2 1.43071e-05
30 *149:47 *177:47 0.000125782
31 *149:47 *177:71 9.41704e-05
32 *149:84 *666:A1 9.45147e-05
33 *149:84 *180:62 6.32694e-05
34 *149:84 *184:80 0.000341854
35 *149:103 *666:A1 2.04332e-05
36 *149:103 *185:30 0.000148814
37 *149:118 *184:80 0
38 *149:118 *185:50 0.000230604
39 *619:A3 *619:B1 4.91189e-05
40 *635:B *149:47 0.0002263
41 *638:A2 *149:47 6.99569e-05
42 *648:A3 *648:B1 0.00026785
43 *648:A3 *149:10 2.51382e-05
44 *648:A3 *149:12 0.000139865
45 *649:A *619:B1 0.000624056
46 *31:23 *149:10 4.7869e-05
47 *31:23 *149:76 3.16784e-05
48 *31:23 *149:118 2.9938e-05
49 *31:31 *149:118 9.24795e-06
50 *31:41 *149:47 0.000110913
51 *52:8 *149:12 8.78864e-05
52 *60:10 *149:118 5.70419e-05
53 *65:10 *149:84 0
54 *65:10 *149:118 0.000107963
55 *66:8 *149:84 0
56 *68:18 *149:103 0.000143655
57 *99:24 *149:118 0.000165371
58 *110:43 *149:47 0.000148106
59 *111:8 *149:47 0.000110651
60 *142:25 *630:A2 0.000230653
61 *142:25 *149:47 0.000317431
62 *146:76 *149:103 2.76611e-06
63 *146:76 *149:118 8.72173e-05
64 *146:89 *149:103 0.00020314
65 *148:27 *149:12 9.72241e-05
66 *148:27 *149:16 0.00037141
*RES
1 *618:X *149:6 24.5743 
2 *149:6 *149:10 24.6529 
3 *149:10 *149:12 3.31429 
4 *149:12 *149:16 20.075 
5 *149:16 *630:A2 27.5986 
6 *149:16 *149:47 42.0764 
7 *149:47 *638:B1 23 
8 *149:12 *619:B1 49.3721 
9 *149:10 *648:B1 40.9 
10 *149:6 *149:76 2.05071 
11 *149:76 *149:84 35.1061 
12 *149:84 *666:A2 23 
13 *149:84 *149:103 39.0055 
14 *149:103 *675:A2 23 
15 *149:76 *149:118 38.6379 
16 *149:118 *657:A2 23 
*END

*D_NET *150 0.000680387
*CONN
*I *620:C I *D sky130_fd_sc_hd__or3_2
*I *619:X O *D sky130_fd_sc_hd__a32o_2
*CAP
1 *620:C 0
2 *619:X 0.000158143
3 *150:8 0.000158143
4 *616:B *150:8 0.000140036
5 *88:34 *150:8 0.000168786
6 *146:8 *150:8 5.52801e-05
*RES
1 *619:X *150:8 42.7229 
2 *150:8 *620:C 38 
*END

*D_NET *151 0.0120343
*CONN
*I *666:B1 I *D sky130_fd_sc_hd__a221o_2
*I *675:B1 I *D sky130_fd_sc_hd__a22o_2
*I *682:A2 I *D sky130_fd_sc_hd__a21o_2
*I *647:A2 I *D sky130_fd_sc_hd__a221o_2
*I *637:A2 I *D sky130_fd_sc_hd__a221o_2
*I *655:B1 I *D sky130_fd_sc_hd__a2bb2o_2
*I *628:A2 I *D sky130_fd_sc_hd__a221o_2
*I *621:X O *D sky130_fd_sc_hd__and3b_2
*CAP
1 *666:B1 0.000119784
2 *675:B1 0.000109738
3 *682:A2 0
4 *647:A2 0.000357394
5 *637:A2 0.000403635
6 *655:B1 0
7 *628:A2 0.000468455
8 *621:X 0.000146659
9 *151:84 0.000472853
10 *151:74 0.00102802
11 *151:40 0.00100088
12 *151:29 0.000502105
13 *151:10 0.000791392
14 *151:8 0.000752464
15 *628:A2 *646:A 0.000193034
16 *628:A2 *646:B 0.000246417
17 *628:A2 *154:23 0.000211143
18 *637:A2 *637:B1 1.59208e-05
19 *637:A2 *183:34 6.33771e-05
20 *647:A2 *154:44 5.3304e-05
21 *647:A2 *183:26 3.80935e-05
22 *647:A2 *183:30 2.09106e-05
23 *666:B1 *184:80 7.37176e-05
24 *675:B1 *675:A1 0.000397596
25 *675:B1 *682:A1 0.000270682
26 *151:8 *621:B 0.000143373
27 *151:8 *182:30 8.06804e-06
28 *151:10 *646:A 5.33144e-05
29 *151:10 *646:B 0.000167355
30 *151:10 *181:71 0.000111852
31 *151:29 *184:63 0.000189857
32 *151:40 *655:B2 0.000136905
33 *151:40 *183:34 0.000392072
34 *151:40 *184:63 0.000100477
35 *151:74 *646:B 0.000118174
36 *151:74 *181:69 0.000152212
37 *151:74 *181:71 2.46345e-05
38 *151:74 *182:43 0.000103949
39 *151:74 *182:58 7.48331e-05
40 *629:A2_N *637:A2 0.000136486
41 *638:A2 *637:A2 3.49686e-05
42 *647:B2 *647:A2 6.39489e-06
43 *647:C1 *647:A2 0.000186038
44 *683:B1 *151:74 0.000127272
45 *31:23 *151:74 0
46 *31:31 *637:A2 0.000260441
47 *31:31 *151:40 0.000552197
48 *31:41 *637:A2 0
49 *32:16 *151:74 2.47015e-05
50 *34:10 *628:A2 2.6595e-05
51 *50:8 *628:A2 0.000140036
52 *67:10 *151:84 3.64337e-05
53 *110:43 *637:A2 3.32677e-05
54 *111:14 *637:A2 0.000187996
55 *146:23 *151:29 0.000306822
56 *146:29 *637:A2 9.75975e-05
57 *146:68 *151:29 2.95526e-05
58 *146:68 *151:40 4.22172e-05
59 *148:79 *151:74 0.000290634
60 *149:10 *151:74 0
*RES
1 *621:X *151:8 40.0507 
2 *151:8 *151:10 2.25786 
3 *151:10 *628:A2 49.2996 
4 *151:10 *151:29 21.815 
5 *151:29 *655:B1 23 
6 *151:29 *151:40 23.6379 
7 *151:40 *637:A2 46.1096 
8 *151:40 *647:A2 43.453 
9 *151:8 *151:74 26.4757 
10 *151:74 *151:84 36.5457 
11 *151:84 *682:A2 23 
12 *151:84 *675:B1 27.4329 
13 *151:74 *666:B1 25.0507 
*END

*D_NET *152 0.000474245
*CONN
*I *623:B1 I *D sky130_fd_sc_hd__a21oi_2
*I *622:Y O *D sky130_fd_sc_hd__o21ai_2
*CAP
1 *623:B1 0
2 *622:Y 0.000173602
3 *152:10 0.000173602
4 *152:10 *155:61 1.32939e-05
5 *152:10 *166:55 1.01436e-05
6 *152:10 *188:40 2.5415e-05
7 *88:49 *152:10 7.81886e-05
*RES
1 *622:Y *152:10 41.0036 
2 *152:10 *623:B1 38 
*END

*D_NET *153 0.00324196
*CONN
*I *630:B1 I *D sky130_fd_sc_hd__a2111o_2
*I *623:Y O *D sky130_fd_sc_hd__a21oi_2
*CAP
1 *630:B1 0.000409184
2 *623:Y 0.000570299
3 *153:12 0.000979483
4 *630:B1 *630:A1 2.47128e-05
5 *630:B1 *733:A2 0
6 *630:B1 *155:44 0
7 *153:12 *733:A2 5.3304e-05
8 *629:B2 *630:B1 0.000215801
9 *630:A2 *630:B1 5.50049e-05
10 *709:B1 *153:12 0.000267167
11 *733:A3 *153:12 5.3304e-05
12 *733:B1 *153:12 0.000144494
13 *103:10 *630:B1 3.47781e-05
14 *108:8 *153:12 6.04088e-05
15 *110:24 *630:B1 0
16 *132:6 *153:12 0.000124407
17 *142:25 *630:B1 0.000187968
18 *148:27 *630:B1 0
19 *148:37 *630:B1 6.16439e-05
*RES
1 *623:Y *153:12 48.3157 
2 *153:12 *630:B1 46.5343 
*END

*D_NET *154 0.0140511
*CONN
*I *673:B I *D sky130_fd_sc_hd__nand2b_2
*I *664:B1 I *D sky130_fd_sc_hd__a2bb2o_2
*I *681:B I *D sky130_fd_sc_hd__and2b_2
*I *654:B I *D sky130_fd_sc_hd__and2b_2
*I *647:B1 I *D sky130_fd_sc_hd__a221o_2
*I *637:B1 I *D sky130_fd_sc_hd__a221o_2
*I *628:B1 I *D sky130_fd_sc_hd__a221o_2
*I *624:X O *D sky130_fd_sc_hd__and3b_2
*CAP
1 *673:B 0
2 *664:B1 9.40092e-05
3 *681:B 0
4 *654:B 0
5 *647:B1 0
6 *637:B1 0.000243499
7 *628:B1 0
8 *624:X 0
9 *154:96 0.000393504
10 *154:81 0.00130374
11 *154:72 0.00114471
12 *154:63 0.000773763
13 *154:44 8.88712e-05
14 *154:36 0.00126519
15 *154:23 0.0012458
16 *154:12 0.00144139
17 *154:6 0.00117013
18 *664:B1 *176:20 9.48381e-06
19 *664:B1 *176:35 0
20 *154:12 *628:A1 6.17437e-06
21 *154:12 *732:B 0.00013942
22 *154:12 *746:A 2.08324e-05
23 *154:12 *155:12 0.000287087
24 *154:23 *628:A1 2.02872e-05
25 *154:36 *183:30 0.000170173
26 *154:44 *638:B2 3.67392e-05
27 *154:44 *644:B 7.73447e-05
28 *154:44 *183:26 6.17437e-06
29 *154:44 *183:30 2.64616e-05
30 *154:63 *644:B 3.50618e-05
31 *154:63 *177:71 4.20525e-05
32 *154:63 *183:26 6.55954e-05
33 *154:63 *183:30 2.64616e-05
34 *154:63 *184:59 2.76611e-06
35 *154:72 *746:A 8.57765e-05
36 *154:72 *163:10 0.000189184
37 *154:81 *176:14 0.00103883
38 *154:96 *176:20 0.000229592
39 *154:96 *179:41 5.3304e-05
40 *628:A2 *154:23 0.000211143
41 *628:B2 *154:12 2.84288e-05
42 *629:A2_N *637:B1 6.4393e-05
43 *637:A2 *637:B1 1.59208e-05
44 *647:A2 *154:44 5.3304e-05
45 *664:B2 *664:B1 0.000166504
46 *664:B2 *154:96 0.000536061
47 *740:A2 *154:96 8.85189e-05
48 *34:10 *154:12 2.66596e-05
49 *34:10 *154:23 1.1804e-05
50 *40:8 *637:B1 4.06408e-05
51 *48:10 *154:44 3.67392e-05
52 *57:10 *154:63 3.5638e-05
53 *58:10 *154:63 7.55134e-05
54 *74:8 *154:96 4.99753e-06
55 *81:10 *154:81 1.39431e-05
56 *93:32 *154:96 2.60152e-05
57 *110:24 *637:B1 1.01436e-05
58 *139:10 *154:96 0.000188926
59 *141:33 *154:72 0
60 *141:65 *154:72 0
61 *141:65 *154:81 9.75388e-05
62 *142:10 *154:12 0.000209041
63 *142:10 *154:72 7.87799e-05
64 *142:71 *154:96 5.3304e-05
65 *146:8 *154:12 0
66 *146:27 *154:23 1.16455e-05
67 *146:29 *637:B1 6.87915e-05
68 *146:29 *154:23 4.53779e-05
69 *146:76 *154:63 0
70 *147:8 *154:12 0.000117883
71 *149:16 *637:B1 0
*RES
1 *624:X *154:6 38 
2 *154:6 *154:12 31.7579 
3 *154:12 *628:B1 23 
4 *154:12 *154:23 25.7507 
5 *154:23 *637:B1 42.7229 
6 *154:23 *154:36 20.3857 
7 *154:36 *154:44 32.175 
8 *154:44 *647:B1 23 
9 *154:36 *154:63 43.92 
10 *154:63 *654:B 23 
11 *154:6 *154:72 22.54 
12 *154:72 *681:B 23 
13 *154:72 *154:81 32.2964 
14 *154:81 *664:B1 40.2579 
15 *154:81 *154:96 27.3871 
16 *154:96 *673:B 23 
*END

*D_NET *155 0.00924355
*CONN
*I *614:A2 I *D sky130_fd_sc_hd__o211a_2
*I *616:A I *D sky130_fd_sc_hd__nor2_2
*I *628:A1 I *D sky130_fd_sc_hd__a221o_2
*I *707:A_N I *D sky130_fd_sc_hd__nand2b_2
*I *733:A2 I *D sky130_fd_sc_hd__a31o_2
*I *619:A2 I *D sky130_fd_sc_hd__a32o_2
*I *732:B I *D sky130_fd_sc_hd__nand2_2
*I *747:X O *D sky130_fd_sc_hd__clkdlybuf4s25_1
*CAP
1 *614:A2 0
2 *616:A 0
3 *628:A1 7.15391e-05
4 *707:A_N 0
5 *733:A2 0.000209917
6 *619:A2 4.99221e-05
7 *732:B 0.000800398
8 *747:X 0.000629812
9 *155:93 0.000497634
10 *155:61 0.000644162
11 *155:44 0.00100897
12 *155:42 0.000469434
13 *155:29 0.000292923
14 *155:12 0.000958162
15 *155:8 0.000289941
16 *732:B *631:A 3.46216e-05
17 *733:A2 *166:47 0.000207219
18 *733:A2 *166:68 5.15096e-05
19 *155:61 *166:55 5.47537e-05
20 *155:93 *188:29 6.39489e-06
21 *616:B *155:8 0.000102971
22 *616:B *155:93 2.95526e-05
23 *619:B1 *619:A2 5.3304e-05
24 *619:B1 *155:42 0.000183547
25 *622:A2 *155:61 5.50106e-05
26 *627:A *155:61 9.84851e-05
27 *627:B *155:61 6.72022e-05
28 *628:B2 *733:A2 0.000259658
29 *628:B2 *155:42 5.29888e-05
30 *628:B2 *155:44 0.000337518
31 *630:B1 *733:A2 0
32 *630:B1 *155:44 0
33 *630:D1 *155:42 0.00018974
34 *630:D1 *155:44 0.000112396
35 *631:B *732:B 7.42591e-05
36 *1:15 *155:93 7.78333e-05
37 *33:10 *155:61 5.67058e-05
38 *34:10 *628:A1 2.64616e-05
39 *35:10 *155:44 4.83778e-05
40 *37:10 *732:B 4.6834e-05
41 *88:49 *155:61 0.000137651
42 *104:8 *733:A2 6.16439e-05
43 *106:8 *155:61 0.000139346
44 *142:10 *732:B 3.6608e-05
45 *142:10 *155:12 0.00014083
46 *142:10 *155:42 5.77452e-05
47 *152:10 *155:61 1.32939e-05
48 *153:12 *733:A2 5.3304e-05
49 *154:12 *628:A1 6.17437e-06
50 *154:12 *732:B 0.00013942
51 *154:12 *155:12 0.000287087
52 *154:23 *628:A1 2.02872e-05
*RES
1 *747:X *155:8 25.5479 
2 *155:8 *155:12 19.0186 
3 *155:12 *732:B 49.8693 
4 *155:12 *155:29 15 
5 *155:29 *619:A2 23.6214 
6 *155:29 *155:42 19.6607 
7 *155:42 *155:44 4.72286 
8 *155:44 *733:A2 42.9921 
9 *155:44 *155:61 27.0764 
10 *155:61 *707:A_N 23 
11 *155:42 *628:A1 39.6157 
12 *155:8 *616:A 23 
13 *747:X *155:93 29.7114 
14 *155:93 *614:A2 23 
*END

*D_NET *156 0.001617
*CONN
*I *704:A I *D sky130_fd_sc_hd__and2_2
*I *708:A_N I *D sky130_fd_sc_hd__and2b_2
*I *706:A I *D sky130_fd_sc_hd__xnor2_2
*I *705:A I *D sky130_fd_sc_hd__or2_2
*I *748:X O *D sky130_fd_sc_hd__clkdlybuf4s25_1
*CAP
1 *704:A 2.87854e-05
2 *708:A_N 0
3 *706:A 0.00021202
4 *705:A 0.000136039
5 *748:X 0.000284554
6 *156:31 0.000120795
7 *156:22 0.00030403
8 *156:20 0.000148515
9 *704:A *166:32 2.32101e-05
10 *706:A *706:B 5.41288e-05
11 *706:A *166:23 0.000170538
12 *156:20 *166:10 0
13 *156:31 *166:23 2.32101e-05
14 *156:31 *166:32 7.88828e-05
15 *88:49 *156:20 0
16 *104:8 *156:20 0
17 *105:10 *706:A 3.22879e-05
*RES
1 *748:X *705:A 48.5271 
2 *748:X *156:20 40.2579 
3 *156:20 *156:22 15 
4 *156:22 *706:A 27.9093 
5 *156:22 *156:31 2.05071 
6 *156:31 *708:A_N 23 
7 *156:31 *704:A 23.6214 
*END

*D_NET *157 0.00185786
*CONN
*I *711:A I *D sky130_fd_sc_hd__or2_2
*I *714:A_N I *D sky130_fd_sc_hd__and2b_2
*I *710:A I *D sky130_fd_sc_hd__and2_2
*I *749:X O *D sky130_fd_sc_hd__clkdlybuf4s25_1
*CAP
1 *711:A 0
2 *714:A_N 0.000352156
3 *710:A 1.40288e-05
4 *749:X 0.000287435
5 *157:31 0.000352156
6 *157:12 1.40288e-05
7 *157:10 0.000287435
8 *710:A *714:B 5.50049e-05
9 *157:10 *170:10 0
10 *157:31 *714:B 3.53115e-05
11 *157:31 *177:14 9.51143e-05
12 *734:B1 *157:31 0.00010018
13 *109:22 *157:31 5.67058e-05
14 *110:8 *157:31 0.000151601
15 *133:10 *157:31 5.67058e-05
*RES
1 *749:X *157:10 41.9564 
2 *157:10 *157:12 15 
3 *157:12 *710:A 23.6214 
4 *157:12 *714:A_N 23 
5 *714:A_N *157:31 31.2443 
6 *157:31 *711:A 23 
*END

*D_NET *158 0.00772969
*CONN
*I *703:A_N I *D sky130_fd_sc_hd__and2b_2
*I *701:B I *D sky130_fd_sc_hd__nand2b_2
*I *730:A I *D sky130_fd_sc_hd__nand2_2
*I *644:A I *D sky130_fd_sc_hd__or2_2
*I *648:A1 I *D sky130_fd_sc_hd__a32o_2
*I *750:X O *D sky130_fd_sc_hd__clkdlybuf4s25_1
*CAP
1 *703:A_N 0
2 *701:B 0
3 *730:A 0
4 *644:A 0
5 *648:A1 0.000326139
6 *750:X 3.58929e-05
7 *158:64 0.000343207
8 *158:48 0.000343563
9 *158:31 0.000552008
10 *158:18 0.00202367
11 *158:16 0.00167178
12 *158:8 0.000245598
13 *158:6 0.000442001
14 *158:16 *179:72 0.000272814
15 *158:48 *644:B 5.58003e-05
16 *158:64 *183:12 0
17 *648:A3 *648:A1 4.98295e-05
18 *658:A *158:18 5.58003e-05
19 *658:B *158:18 4.69418e-05
20 *717:B *158:18 5.45644e-05
21 *735:A1 *158:48 5.5792e-05
22 *46:10 *158:64 0
23 *53:10 *158:16 6.17437e-06
24 *53:10 *158:48 0.000571193
25 *100:8 *158:16 4.61596e-05
26 *101:10 *158:18 2.92911e-06
27 *101:28 *158:16 1.0092e-05
28 *116:10 *158:18 2.81549e-05
29 *129:10 *158:48 0.000135616
30 *130:51 *158:48 0.000293644
31 *133:20 *158:48 4.41923e-05
32 *134:10 *158:48 1.61385e-05
*RES
1 *750:X *158:6 23.6214 
2 *158:6 *158:8 1.09786 
3 *158:8 *158:16 34.7643 
4 *158:16 *158:18 19.2021 
5 *158:18 *648:A1 26.9564 
6 *158:18 *158:31 34.0186 
7 *158:31 *644:A 23 
8 *158:31 *158:48 41.6207 
9 *158:48 *730:A 23 
10 *158:8 *701:B 23 
11 *158:6 *158:64 35.7793 
12 *158:64 *703:A_N 23 
*END

*D_NET *159 0.00412346
*CONN
*I *687:A I *D sky130_fd_sc_hd__inv_2
*I *724:A I *D sky130_fd_sc_hd__or3b_2
*I *718:A I *D sky130_fd_sc_hd__and2_2
*I *719:A I *D sky130_fd_sc_hd__nor2_2
*I *751:X O *D sky130_fd_sc_hd__clkdlybuf4s25_1
*CAP
1 *687:A 0.000141075
2 *724:A 0
3 *718:A 5.37746e-05
4 *719:A 0.000155908
5 *751:X 0
6 *159:18 0.00104484
7 *159:12 0.000949903
8 *159:6 0.000255823
9 *718:A *176:54 0
10 *719:A *176:54 0
11 *159:12 *179:62 0
12 *159:18 *184:35 0.0003421
13 *159:18 *184:45 5.50106e-05
14 *722:A *159:18 4.61404e-05
15 *736:B *719:A 5.50106e-05
16 *56:14 *719:A 6.2339e-05
17 *98:8 *687:A 0.000134585
18 *98:8 *159:12 4.334e-05
19 *121:10 *159:18 9.84794e-05
20 *123:8 *687:A 0.000277705
21 *123:8 *159:12 0.000169683
22 *123:12 *687:A 9.67842e-05
23 *134:32 *718:A 5.24393e-05
24 *134:32 *719:A 8.85189e-05
*RES
1 *751:X *159:6 38 
2 *159:6 *159:12 17.8793 
3 *159:12 *159:18 27.4286 
4 *159:18 *719:A 41.2936 
5 *159:18 *718:A 38.8493 
6 *159:12 *724:A 23 
7 *159:6 *687:A 42.7643 
*END

*D_NET *160 0.00150413
*CONN
*I *725:A_N I *D sky130_fd_sc_hd__and2b_2
*I *696:A I *D sky130_fd_sc_hd__nand2_2
*I *698:A I *D sky130_fd_sc_hd__or2_4
*I *752:X O *D sky130_fd_sc_hd__clkdlybuf4s25_1
*CAP
1 *725:A_N 0.000213151
2 *696:A 0
3 *698:A 7.37328e-05
4 *752:X 0
5 *160:14 0.000232182
6 *160:6 0.0003716
7 *698:A *696:B 2.18506e-05
8 *725:A_N *725:B 0.00012435
9 *160:14 *696:B 9.41492e-05
10 *160:14 *725:B 0.00025307
11 *160:14 *185:68 3.70094e-05
12 *752:A *160:14 0
13 *95:16 *698:A 8.30364e-05
14 *95:16 *160:14 0
*RES
1 *752:X *160:6 38 
2 *160:6 *160:14 19.785 
3 *160:14 *698:A 25.0507 
4 *160:14 *696:A 23 
5 *160:6 *725:A_N 42.0807 
*END

*D_NET *161 0.00118468
*CONN
*I *694:A I *D sky130_fd_sc_hd__and2_2
*I *728:A_N I *D sky130_fd_sc_hd__nand2b_2
*I *693:A I *D sky130_fd_sc_hd__nor2_2
*I *753:X O *D sky130_fd_sc_hd__clkdlybuf4s25_1
*CAP
1 *694:A 2.53239e-05
2 *728:A_N 0
3 *693:A 0.000232409
4 *753:X 0.000182908
5 *161:23 2.53239e-05
6 *161:10 0.000415317
7 *693:A *186:12 0
8 *694:A *728:B 0.00014196
9 *161:10 *175:8 0
10 *679:B *694:A 0.00014196
11 *126:45 *161:10 0
12 *142:63 *693:A 1.94812e-05
*RES
1 *753:X *161:10 40.5271 
2 *161:10 *693:A 41.9357 
3 *161:10 *161:23 15 
4 *161:23 *728:A_N 23 
5 *161:23 *694:A 24.5743 
*END

*D_NET *162 0.00177781
*CONN
*I *688:A_N I *D sky130_fd_sc_hd__nand2b_2
*I *691:A I *D sky130_fd_sc_hd__and2_2
*I *690:A I *D sky130_fd_sc_hd__nor2_2
*I *754:X O *D sky130_fd_sc_hd__clkdlybuf4s25_1
*CAP
1 *688:A_N 5.39225e-05
2 *691:A 2.95011e-05
3 *690:A 0.000132906
4 *754:X 0.000175904
5 *162:10 0.000246641
6 *162:8 0.000314061
7 *688:A_N *187:6 5.12254e-05
8 *688:A_N *187:34 6.17437e-06
9 *690:A *690:B 0.000160169
10 *162:8 *167:10 0
11 *162:10 *690:B 4.6318e-06
12 *162:10 *187:10 6.32688e-05
13 *744:B2 *690:A 8.23113e-05
14 *744:B2 *162:8 8.26312e-05
15 *744:B2 *162:10 6.46393e-05
16 *778:A *162:8 2.36844e-05
17 *16:11 *162:8 0
18 *87:10 *688:A_N 5.37348e-06
19 *87:10 *162:8 0.000117121
20 *88:10 *690:A 6.7177e-06
21 *88:10 *162:8 2.8241e-05
22 *88:10 *162:10 1.69668e-05
23 *89:12 *691:A 5.50106e-05
24 *141:27 *690:A 5.67058e-05
*RES
1 *754:X *162:8 43.075 
2 *162:8 *162:10 2.61 
3 *162:10 *690:A 41.9357 
4 *162:10 *691:A 38.6214 
5 *162:8 *688:A_N 39.0979 
*END

*D_NET *163 0.00268384
*CONN
*I *743:C I *D sky130_fd_sc_hd__or3_2
*I *746:A I *D sky130_fd_sc_hd__clkdlybuf4s25_1
*I *755:X O *D sky130_fd_sc_hd__clkdlybuf4s25_1
*CAP
1 *743:C 0
2 *746:A 0.000233823
3 *755:X 0.000555169
4 *163:10 0.000788991
5 *746:A *624:B 5.37348e-06
6 *746:A *624:C 4.8117e-05
7 *746:A *165:59 5.50106e-05
8 *746:A *165:67 8.94468e-05
9 *163:10 *164:18 0
10 *681:A_N *163:10 0.000260847
11 *88:34 *746:A 0
12 *88:34 *163:10 0
13 *89:12 *163:10 0.000267173
14 *146:8 *746:A 8.41012e-05
15 *154:12 *746:A 2.08324e-05
16 *154:72 *746:A 8.57765e-05
17 *154:72 *163:10 0.000189184
*RES
1 *755:X *163:10 49.89 
2 *163:10 *746:A 43.9864 
3 *163:10 *743:C 38 
*END

*D_NET *164 0.0026221
*CONN
*I *743:B I *D sky130_fd_sc_hd__or3_2
*I *745:A I *D sky130_fd_sc_hd__clkdlybuf4s25_1
*I *756:X O *D sky130_fd_sc_hd__clkdlybuf4s25_1
*CAP
1 *743:B 0.000231933
2 *745:A 0
3 *756:X 0.000167137
4 *164:18 0.000217569
5 *164:12 0.000676078
6 *164:8 0.000393713
7 *743:B *181:31 0.000139357
8 *743:B *181:40 9.16459e-05
9 *164:8 *742:B 0
10 *164:8 *165:8 0
11 *164:8 *182:8 4.334e-05
12 *164:12 *181:31 0.000140259
13 *164:18 *742:B 9.48381e-06
14 *164:18 *181:10 3.884e-05
15 *164:18 *181:12 1.86973e-05
16 *615:B *164:12 9.45591e-05
17 *88:10 *164:18 0
18 *88:34 *164:18 6.4393e-05
19 *143:16 *164:8 0.000295096
20 *163:10 *164:18 0
*RES
1 *756:X *164:8 42.0186 
2 *164:8 *164:12 18.48 
3 *164:12 *164:18 33.6664 
4 *164:18 *745:A 23 
5 *164:12 *743:B 26.48 
*END

*D_NET *165 0.0069971
*CONN
*I *624:A_N I *D sky130_fd_sc_hd__and3b_2
*I *617:A I *D sky130_fd_sc_hd__nor3b_2
*I *618:A I *D sky130_fd_sc_hd__and3_2
*I *621:C I *D sky130_fd_sc_hd__and3b_2
*I *742:A I *D sky130_fd_sc_hd__nor3_2
*I *625:C_N I *D sky130_fd_sc_hd__or3b_2
*I *743:A I *D sky130_fd_sc_hd__or3_2
*I *689:A I *D sky130_fd_sc_hd__nor3b_2
*I *612:A I *D sky130_fd_sc_hd__nand2_2
*I *757:X O *D sky130_fd_sc_hd__clkdlybuf4s25_1
*CAP
1 *624:A_N 0
2 *617:A 0
3 *618:A 0.000167603
4 *621:C 0
5 *742:A 0
6 *625:C_N 0.000205316
7 *743:A 0
8 *689:A 2.14194e-05
9 *612:A 0
10 *757:X 6.90834e-05
11 *165:79 0.000132468
12 *165:71 0.000389631
13 *165:67 0.000388491
14 *165:59 0.0003612
15 *165:40 0.000414706
16 *165:29 0.000494193
17 *165:20 0.000368371
18 *165:14 0.000482023
19 *165:10 0.000439304
20 *165:8 6.90834e-05
21 *618:A *624:C 5.40337e-05
22 *618:A *181:59 4.08664e-05
23 *618:A *181:69 5.3304e-05
24 *618:A *182:58 6.50258e-05
25 *618:A *182:60 2.46906e-05
26 *625:C_N *625:A 5.56356e-05
27 *625:C_N *180:20 7.87243e-05
28 *625:C_N *181:40 0.000264559
29 *165:8 *182:8 0
30 *165:14 *742:B 7.72655e-05
31 *165:14 *182:100 0.000126914
32 *165:14 *182:108 5.50049e-05
33 *165:29 *612:B 5.3304e-05
34 *165:40 *615:A 0
35 *165:40 *181:31 2.44913e-05
36 *165:40 *181:40 0.000119313
37 *165:67 *624:C 0.000242234
38 *165:71 *617:B 0
39 *165:71 *624:C 4.05745e-05
40 *165:79 *181:69 0
41 *165:79 *182:30 0.00010255
42 *615:B *689:A 5.90675e-06
43 *615:B *165:29 0.000173452
44 *615:B *165:40 4.5051e-05
45 *746:A *165:59 5.50106e-05
46 *746:A *165:67 8.94468e-05
47 *18:11 *165:20 0.000105932
48 *31:8 *625:C_N 5.68958e-05
49 *88:10 *165:29 0.000141052
50 *88:10 *165:40 1.32314e-05
51 *88:34 *165:8 0.000114083
52 *88:34 *165:40 0.00012612
53 *141:8 *165:20 0.000131878
54 *141:33 *165:79 0.000114083
55 *142:6 *625:C_N 2.93747e-05
56 *142:55 *625:C_N 4.34973e-05
57 *143:8 *165:29 4.34876e-05
58 *148:8 *165:79 8.62876e-05
59 *148:79 *618:A 0.000140927
60 *164:8 *165:8 0
*RES
1 *757:X *165:8 39.5536 
2 *165:8 *165:10 15 
3 *165:10 *165:14 6.83571 
4 *165:14 *165:20 33.3143 
5 *165:20 *612:A 23 
6 *165:20 *165:29 5.88286 
7 *165:29 *689:A 23.4971 
8 *165:29 *165:40 4.93 
9 *165:40 *743:A 23 
10 *165:40 *625:C_N 28.3857 
11 *165:14 *742:A 23 
12 *165:10 *165:59 1.09786 
13 *165:59 *165:67 5.92429 
14 *165:67 *165:71 1.595 
15 *165:71 *165:79 32.698 
16 *165:79 *621:C 23 
17 *165:71 *618:A 26.9564 
18 *165:67 *617:A 23 
19 *165:59 *624:A_N 23 
*END

*D_NET *166 0.00726308
*CONN
*I *704:B I *D sky130_fd_sc_hd__and2_2
*I *637:A1 I *D sky130_fd_sc_hd__a221o_2
*I *629:A1_N I *D sky130_fd_sc_hd__a2bb2o_2
*I *619:B2 I *D sky130_fd_sc_hd__a32o_2
*I *705:B I *D sky130_fd_sc_hd__or2_2
*I *708:B I *D sky130_fd_sc_hd__and2b_2
*I *706:B I *D sky130_fd_sc_hd__xnor2_2
*I *758:X O *D sky130_fd_sc_hd__clkdlybuf4s25_1
*CAP
1 *704:B 3.24641e-05
2 *637:A1 0.000258373
3 *629:A1_N 0
4 *619:B2 0
5 *705:B 0.000264454
6 *708:B 0
7 *706:B 7.93159e-05
8 *758:X 0.000147155
9 *166:68 0.000324627
10 *166:55 0.000744797
11 *166:47 0.00102088
12 *166:34 0.000474289
13 *166:32 0.000132655
14 *166:23 0.000224568
15 *166:12 0.000203693
16 *166:10 0.000147155
17 *166:47 *188:61 0.00013449
18 *166:55 *188:40 0
19 *627:A *166:55 3.71369e-05
20 *627:B *637:A1 0.000534442
21 *627:B *166:55 0.000109928
22 *627:B *166:68 7.78521e-05
23 *628:B2 *166:55 0
24 *629:A2_N *637:A1 0.000328357
25 *637:B2 *637:A1 2.85422e-05
26 *638:A2 *637:A1 1.14154e-05
27 *704:A *166:32 2.32101e-05
28 *706:A *706:B 5.41288e-05
29 *706:A *166:23 0.000170538
30 *733:A2 *166:47 0.000207219
31 *733:A2 *166:68 5.15096e-05
32 *10:9 *166:10 1.94812e-05
33 *33:10 *166:55 0
34 *35:10 *637:A1 1.27948e-05
35 *35:10 *166:68 2.62943e-05
36 *37:10 *166:55 0.000108331
37 *88:34 *166:55 0.000284747
38 *88:49 *166:10 1.19692e-05
39 *88:49 *166:55 0.000106288
40 *88:55 *704:B 1.46324e-05
41 *88:55 *166:23 0.000226306
42 *88:55 *166:32 0.000213069
43 *104:8 *705:B 7.81176e-05
44 *104:8 *166:47 5.9679e-05
45 *110:43 *637:A1 5.78735e-05
46 *148:37 *637:A1 5.3304e-05
47 *152:10 *166:55 1.01436e-05
48 *155:61 *166:55 5.47537e-05
49 *156:20 *166:10 0
50 *156:31 *166:23 2.32101e-05
51 *156:31 *166:32 7.88828e-05
*RES
1 *758:X *166:10 40.175 
2 *166:10 *166:12 15 
3 *166:12 *706:B 24.595 
4 *166:12 *166:23 3.95643 
5 *166:23 *708:B 23 
6 *166:23 *166:32 3.37643 
7 *166:32 *166:34 15 
8 *166:34 *705:B 41.9357 
9 *166:34 *166:47 4.72286 
10 *166:47 *166:55 44.3343 
11 *166:55 *619:B2 38 
12 *166:47 *166:68 16.7089 
13 *166:68 *629:A1_N 23 
14 *166:68 *637:A1 33.2639 
15 *166:32 *704:B 23.6214 
*END

*D_NET *167 0.00092657
*CONN
*I *769:A I *D sky130_fd_sc_hd__dlymetal6s2s_1
*I *744:X O *D sky130_fd_sc_hd__a32o_2
*CAP
1 *769:A 4.24511e-05
2 *744:X 0.00026354
3 *167:10 0.000305992
4 *16:11 *167:10 0.000167562
5 *17:10 *167:10 0.000147025
6 *162:8 *167:10 0
*RES
1 *744:X *167:10 44.1729 
2 *167:10 *769:A 38.6214 
*END

*D_NET *168 0.00117476
*CONN
*I *770:A I *D sky130_fd_sc_hd__clkdlybuf4s25_1
*I *620:X O *D sky130_fd_sc_hd__or3_2
*CAP
1 *770:A 0.000209921
2 *620:X 0.000210984
3 *168:8 0.000420905
4 *770:A *188:6 3.7122e-06
5 *770:A *188:8 8.04786e-05
6 *770:A *188:16 2.81066e-05
7 *88:34 *168:8 0.000168795
8 *145:8 *168:8 5.18573e-05
*RES
1 *620:X *168:8 42.7229 
2 *168:8 *770:A 41.9771 
*END

*D_NET *169 0.000680446
*CONN
*I *771:A I *D sky130_fd_sc_hd__clkdlybuf4s25_1
*I *632:X O *D sky130_fd_sc_hd__o22a_2
*CAP
1 *771:A 0
2 *632:X 0.000340223
3 *169:6 0.000340223
*RES
1 *632:X *169:6 28.3857 
2 *169:6 *771:A 23 
*END

*D_NET *170 0.00099611
*CONN
*I *772:A I *D sky130_fd_sc_hd__clkdlybuf4s25_1
*I *640:X O *D sky130_fd_sc_hd__o22a_2
*CAP
1 *772:A 0
2 *640:X 0.000445894
3 *170:10 0.000445894
4 *640:A2 *170:10 4.2062e-05
5 *11:11 *170:10 1.14452e-05
6 *39:10 *170:10 0
7 *44:8 *170:10 1.24376e-05
8 *109:22 *170:10 3.83778e-05
9 *132:20 *170:10 0
10 *157:10 *170:10 0
*RES
1 *640:X *170:10 44.6493 
2 *170:10 *772:A 38 
*END

*D_NET *171 0.000957687
*CONN
*I *773:A I *D sky130_fd_sc_hd__clkdlybuf4s25_1
*I *651:X O *D sky130_fd_sc_hd__o2bb2a_2
*CAP
1 *773:A 0
2 *651:X 0.000365567
3 *171:10 0.000365567
4 *171:10 *179:72 5.58003e-05
5 *171:10 *183:22 0.00011745
6 *650:A3 *171:10 5.3304e-05
*RES
1 *651:X *171:10 29.38 
2 *171:10 *773:A 23 
*END

*D_NET *172 0.00291022
*CONN
*I *774:A I *D sky130_fd_sc_hd__clkdlybuf4s25_1
*I *660:X O *D sky130_fd_sc_hd__o41a_2
*CAP
1 *774:A 0
2 *660:X 0.000759116
3 *172:8 0.000759116
4 *172:8 *184:59 0.000101757
5 *56:14 *172:8 0.00115258
6 *119:35 *172:8 0.000137651
*RES
1 *660:X *172:8 39.24 
2 *172:8 *774:A 23 
*END

*D_NET *173 0.000881763
*CONN
*I *775:A I *D sky130_fd_sc_hd__clkdlybuf4s25_1
*I *669:X O *D sky130_fd_sc_hd__a31o_2
*CAP
1 *775:A 0
2 *669:X 0.000394712
3 *173:8 0.000394712
4 *661:A *173:8 6.17437e-06
5 *699:A *173:8 5.3304e-05
6 *96:10 *173:8 3.28609e-05
*RES
1 *669:X *173:8 28.8829 
2 *173:8 *775:A 23 
*END

*D_NET *174 0.00100902
*CONN
*I *776:A I *D sky130_fd_sc_hd__clkdlybuf4s25_1
*I *678:X O *D sky130_fd_sc_hd__o22a_2
*CAP
1 *776:A 0.000126997
2 *678:X 0.000247734
3 *174:8 0.000374731
4 *94:35 *174:8 0
5 *126:27 *776:A 0.000128401
6 *126:35 *174:8 8.62876e-05
7 *138:10 *174:8 4.48671e-05
*RES
1 *678:X *174:8 42.7229 
2 *174:8 *776:A 41.0036 
*END

*D_NET *175 0.000394303
*CONN
*I *777:A I *D sky130_fd_sc_hd__clkbuf_2
*I *686:X O *D sky130_fd_sc_hd__o22a_2
*CAP
1 *777:A 0.000101489
2 *686:X 9.35545e-05
3 *175:8 0.000195044
4 *126:45 *175:8 4.21594e-06
5 *161:10 *175:8 0
*RES
1 *686:X *175:8 39.5536 
2 *175:8 *777:A 39.5743 
*END

*D_NET *176 0.0122877
*CONN
*I *669:A1 I *D sky130_fd_sc_hd__a31o_2
*I *651:A1_N I *D sky130_fd_sc_hd__o2bb2a_2
*I *639:C1 I *D sky130_fd_sc_hd__a211o_2
*I *657:C1 I *D sky130_fd_sc_hd__a211o_2
*I *677:C1 I *D sky130_fd_sc_hd__a211o_2
*I *766:X O *D sky130_fd_sc_hd__clkbuf_2
*CAP
1 *669:A1 0.000357497
2 *651:A1_N 2.8302e-05
3 *639:C1 0
4 *657:C1 0.000118032
5 *677:C1 0
6 *766:X 0.00023863
7 *176:64 0.00060514
8 *176:54 0.00157779
9 *176:50 0.00182045
10 *176:35 0.00104133
11 *176:20 0.000370903
12 *176:14 0.00164534
13 *176:10 0.00110838
14 *651:A1_N *183:22 9.88809e-05
15 *657:C1 *185:50 0
16 *176:35 *185:50 0
17 *176:54 *184:35 0
18 *176:64 *183:22 0.000232049
19 *651:B2 *651:A1_N 4.73829e-05
20 *651:B2 *176:64 5.76359e-05
21 *656:A1 *176:50 6.70749e-05
22 *656:B1 *176:35 2.26406e-05
23 *656:B2 *176:50 8.1796e-05
24 *661:A *669:A1 3.04324e-05
25 *661:B *669:A1 0
26 *664:B1 *176:20 9.48381e-06
27 *664:B1 *176:35 0
28 *669:A2 *669:A1 3.04324e-05
29 *683:B1 *176:10 5.31444e-05
30 *718:A *176:54 0
31 *719:A *176:54 0
32 *720:B *657:C1 0
33 *721:A *176:54 0
34 *722:B *176:54 0
35 *737:A1 *176:50 3.88863e-05
36 *737:A2 *176:50 5.50049e-05
37 *737:B1 *176:50 5.50106e-05
38 *738:C1 *669:A1 0
39 *32:29 *176:20 0
40 *32:29 *176:35 0.000318945
41 *43:10 *176:64 0
42 *45:10 *176:54 2.81425e-05
43 *45:10 *176:64 0
44 *51:8 *176:64 5.45644e-05
45 *59:10 *657:C1 0.000166513
46 *64:10 *669:A1 0.000100615
47 *70:10 *669:A1 7.8128e-05
48 *77:10 *176:20 0.000138727
49 *99:14 *669:A1 0
50 *99:16 *669:A1 0
51 *99:24 *669:A1 0
52 *99:24 *176:54 0
53 *108:8 *176:64 0.000103637
54 *108:12 *176:64 4.6318e-06
55 *112:8 *176:64 0.000187129
56 *117:22 *176:54 0
57 *117:35 *669:A1 0
58 *119:29 *176:54 0
59 *119:63 *176:54 0
60 *119:79 *657:C1 0
61 *119:79 *176:35 0
62 *119:81 *176:50 4.6595e-05
63 *120:14 *176:54 0
64 *130:21 *176:64 0
65 *133:20 *176:64 0
66 *135:8 *176:54 0
67 *136:8 *669:A1 0
68 *146:89 *176:35 0
69 *154:81 *176:14 0.00103883
70 *154:96 *176:20 0.000229592
*RES
1 *766:X *176:10 42.0807 
2 *176:10 *176:14 28.0086 
3 *176:14 *176:20 39.3007 
4 *176:20 *677:C1 23 
5 *176:14 *176:35 22.7679 
6 *176:35 *657:C1 40.61 
7 *176:35 *176:50 39.6736 
8 *176:50 *176:54 31.3436 
9 *176:54 *176:64 43.5264 
10 *176:64 *639:C1 23 
11 *176:54 *651:A1_N 24.1082 
12 *176:50 *669:A1 44.8357 
*END

*D_NET *177 0.00721897
*CONN
*I *647:A1 I *D sky130_fd_sc_hd__a221o_2
*I *635:A I *D sky130_fd_sc_hd__nor2_2
*I *630:A1 I *D sky130_fd_sc_hd__a2111o_2
*I *711:B I *D sky130_fd_sc_hd__or2_2
*I *714:B I *D sky130_fd_sc_hd__and2b_2
*I *710:B I *D sky130_fd_sc_hd__and2_2
*I *759:X O *D sky130_fd_sc_hd__clkdlybuf4s25_1
*CAP
1 *647:A1 0
2 *635:A 1.74311e-05
3 *630:A1 0.000181912
4 *711:B 0
5 *714:B 7.57547e-05
6 *710:B 4.01156e-05
7 *759:X 0.000446937
8 *177:71 0.000438579
9 *177:47 0.000548099
10 *177:41 0.00108284
11 *177:30 0.000347862
12 *177:14 0.000218494
13 *177:10 0.000601914
14 *177:71 *638:B2 0.000245954
15 *177:71 *644:B 6.33771e-05
16 *630:A2 *630:A1 0.000256192
17 *630:A2 *635:A 1.12349e-05
18 *630:A2 *177:47 5.25436e-05
19 *630:B1 *630:A1 2.47128e-05
20 *635:B *177:47 0.000206368
21 *640:A1 *177:71 0
22 *710:A *714:B 5.50049e-05
23 *712:A_N *177:71 6.48142e-05
24 *734:B1 *177:14 5.70419e-05
25 *31:41 *177:41 0.000188926
26 *41:10 *177:71 9.58714e-05
27 *88:55 *710:B 0
28 *88:55 *714:B 0.000258245
29 *88:55 *177:14 0.000530627
30 *110:8 *177:14 0.000185434
31 *110:24 *177:41 0
32 *111:8 *177:71 1.03955e-05
33 *111:14 *177:41 0.000366768
34 *111:35 *177:41 1.86973e-05
35 *132:20 *177:30 6.07611e-06
36 *132:20 *177:41 9.88678e-05
37 *133:10 *177:41 0
38 *142:25 *177:71 2.94414e-05
39 *142:40 *177:71 0
40 *149:47 *177:47 0.000125782
41 *149:47 *177:71 9.41704e-05
42 *154:63 *177:71 4.20525e-05
43 *157:31 *714:B 3.53115e-05
44 *157:31 *177:14 9.51143e-05
*RES
1 *759:X *177:10 43.9864 
2 *177:10 *177:14 20.8621 
3 *177:14 *710:B 23.8493 
4 *177:14 *714:B 26.0036 
5 *177:10 *177:30 0.849286 
6 *177:30 *711:B 38 
7 *177:30 *177:41 22.54 
8 *177:41 *177:47 6.02786 
9 *177:47 *630:A1 26.9771 
10 *177:47 *635:A 23.4971 
11 *177:41 *177:71 37.975 
12 *177:71 *647:A1 23 
*END

*D_NET *178 0.00234589
*CONN
*I *623:A1 I *D sky130_fd_sc_hd__a21oi_2
*I *631:A I *D sky130_fd_sc_hd__xor2_2
*I *622:A1 I *D sky130_fd_sc_hd__o21ai_2
*I *709:A1 I *D sky130_fd_sc_hd__a21o_2
*I *767:X O *D sky130_fd_sc_hd__clkbuf_2
*CAP
1 *623:A1 0
2 *631:A 0.00037616
3 *622:A1 0
4 *709:A1 8.31839e-05
5 *767:X 4.93833e-05
6 *178:27 0.000523125
7 *178:14 0.000316375
8 *178:6 0.000135609
9 *631:A *188:40 0
10 *178:27 *188:48 4.58924e-05
11 *709:B1 *709:A1 5.50049e-05
12 *709:B1 *178:6 0.000259146
13 *709:B1 *178:14 5.67058e-05
14 *732:B *631:A 3.46216e-05
15 *88:49 *178:27 0
16 *106:14 *631:A 3.70094e-05
17 *106:14 *178:27 0.000191148
18 *108:8 *178:6 0.000153145
19 *108:8 *178:14 2.93845e-05
*RES
1 *767:X *178:6 26.0036 
2 *178:6 *178:14 17.0404 
3 *178:14 *709:A1 39.2946 
4 *178:14 *178:27 3.13821 
5 *178:27 *622:A1 38 
6 *178:27 *631:A 44.8771 
7 *178:6 *623:A1 23 
*END

*D_NET *179 0.0133236
*CONN
*I *668:A1 I *D sky130_fd_sc_hd__a41o_2
*I *653:C I *D sky130_fd_sc_hd__and3b_2
*I *650:A1 I *D sky130_fd_sc_hd__a31o_2
*I *671:A I *D sky130_fd_sc_hd__nand2_2
*I *685:A1 I *D sky130_fd_sc_hd__a31o_2
*I *778:X O *D sky130_fd_sc_hd__clkbuf_2
*CAP
1 *668:A1 0
2 *653:C 1.63038e-05
3 *650:A1 0
4 *671:A 0
5 *685:A1 0.000167409
6 *778:X 0.000186796
7 *179:72 0.000472911
8 *179:62 0.000777557
9 *179:60 0.00105535
10 *179:45 0.000832844
11 *179:41 0.00172083
12 *179:10 0.0020092
13 *179:41 *728:B 0.000358305
14 *179:60 *725:B 0
15 *179:60 *185:59 0
16 *179:60 *185:68 0
17 *179:72 *701:A_N 0.000135616
18 *671:B *179:60 5.50049e-05
19 *679:A *179:10 7.30026e-05
20 *679:B *179:41 0.000195587
21 *686:A2 *179:41 0.000102203
22 *686:B1 *179:41 0.000103532
23 *686:B2 *179:41 9.18778e-05
24 *723:C_N *179:72 3.21291e-05
25 *727:A3 *179:60 8.51432e-05
26 *53:16 *179:72 0.000111106
27 *55:10 *179:72 0.000141888
28 *56:14 *653:C 1.53367e-05
29 *69:10 *179:60 3.70094e-05
30 *69:10 *179:62 0.000191157
31 *72:10 *179:60 5.61255e-06
32 *84:8 *685:A1 3.92407e-05
33 *85:10 *685:A1 0
34 *85:10 *179:10 0
35 *91:17 *685:A1 2.93845e-05
36 *91:25 *685:A1 0
37 *92:14 *179:41 0.000128401
38 *94:52 *179:41 0.000190191
39 *94:52 *179:45 0.000111596
40 *94:52 *179:60 4.34745e-05
41 *97:63 *179:60 0.000140958
42 *98:8 *179:60 4.63333e-05
43 *98:8 *179:62 4.31263e-05
44 *101:10 *179:72 7.50533e-05
45 *101:28 *179:72 5.91668e-05
46 *115:8 *179:72 2.07008e-05
47 *121:10 *179:62 4.23817e-05
48 *121:10 *179:72 9.13409e-05
49 *122:10 *179:62 0.000552151
50 *122:10 *179:72 9.94431e-05
51 *122:29 *179:60 0.000676253
52 *122:29 *179:62 1.14452e-05
53 *123:8 *179:62 0
54 *123:25 *179:60 0
55 *124:8 *179:60 0
56 *125:10 *179:60 8.15327e-05
57 *126:8 *179:60 0.000192681
58 *126:12 *179:60 0.000183733
59 *126:35 *179:41 0.000669062
60 *128:21 *685:A1 4.6318e-06
61 *139:34 *685:A1 9.27917e-05
62 *139:34 *179:10 2.80493e-05
63 *142:55 *685:A1 0
64 *142:71 *179:41 0.000314836
65 *154:96 *179:41 5.3304e-05
66 *158:16 *179:72 0.000272814
67 *159:12 *179:62 0
68 *171:10 *179:72 5.58003e-05
*RES
1 *778:X *179:10 41.6043 
2 *179:10 *685:A1 41.5836 
3 *179:10 *179:41 49.51 
4 *179:41 *179:45 1.94714 
5 *179:45 *671:A 23 
6 *179:45 *179:60 35.3621 
7 *179:60 *179:62 7.54 
8 *179:62 *179:72 27.4493 
9 *179:72 *650:A1 23 
10 *179:62 *653:C 38.2952 
11 *179:60 *668:A1 38 
*END

*D_NET *180 0.00814339
*CONN
*I *656:A2 I *D sky130_fd_sc_hd__a22o_2
*I *665:A2 I *D sky130_fd_sc_hd__a211o_2
*I *676:A2 I *D sky130_fd_sc_hd__a211o_2
*I *684:A2 I *D sky130_fd_sc_hd__a211o_2
*I *768:X O *D sky130_fd_sc_hd__buf_1
*CAP
1 *656:A2 0.000366518
2 *665:A2 0
3 *676:A2 0
4 *684:A2 0.000338756
5 *768:X 0
6 *180:62 3.07033e-05
7 *180:56 0.000790905
8 *180:49 0.00106784
9 *180:20 0.00204365
10 *180:4 0.00103074
11 *684:A2 *683:A1_N 6.36377e-06
12 *684:A2 *688:B 0
13 *684:A2 *187:47 6.2843e-05
14 *180:20 *181:46 1.83564e-05
15 *180:49 *675:A1 2.38602e-06
16 *625:C_N *180:20 7.87243e-05
17 *674:B1 *180:49 1.14876e-05
18 *676:B1 *180:49 1.56273e-05
19 *684:A1 *684:A2 4.37033e-05
20 *684:C1 *684:A2 0.000226268
21 *768:A *180:56 2.64616e-05
22 *31:8 *180:20 1.08287e-05
23 *31:8 *180:56 2.3991e-05
24 *31:23 *180:56 0.000128223
25 *32:8 *180:56 3.66555e-05
26 *59:10 *656:A2 3.18571e-05
27 *65:10 *180:62 1.97178e-05
28 *67:10 *180:56 8.06804e-06
29 *82:8 *180:49 8.4047e-05
30 *91:40 *180:49 8.62876e-05
31 *96:18 *656:A2 0.000300768
32 *97:31 *180:49 6.17437e-06
33 *141:33 *180:20 2.09183e-05
34 *142:55 *180:20 0.000547499
35 *146:89 *180:49 0.00029741
36 *146:107 *180:49 0.000316339
37 *149:84 *180:62 6.32694e-05
*RES
1 *768:X *180:4 23 
2 *180:4 *180:20 43.5886 
3 *180:20 *684:A2 29.4007 
4 *180:20 *180:49 46.3229 
5 *180:49 *676:A2 23 
6 *180:4 *180:56 6.815 
7 *180:56 *180:62 30.8493 
8 *180:62 *665:A2 23 
9 *180:56 *656:A2 31.5239 
*END

*D_NET *181 0.00987349
*CONN
*I *689:B I *D sky130_fd_sc_hd__nor3b_2
*I *625:A I *D sky130_fd_sc_hd__or3b_2
*I *618:B I *D sky130_fd_sc_hd__and3_2
*I *617:C_N I *D sky130_fd_sc_hd__nor3b_2
*I *621:B I *D sky130_fd_sc_hd__and3b_2
*I *613:S I *D sky130_fd_sc_hd__mux2_1
*I *646:A I *D sky130_fd_sc_hd__or3_2
*I *624:B I *D sky130_fd_sc_hd__and3b_2
*I *615:A I *D sky130_fd_sc_hd__or2_2
*I *742:B I *D sky130_fd_sc_hd__nor3_2
*I *745:X O *D sky130_fd_sc_hd__clkdlybuf4s25_1
*CAP
1 *689:B 0
2 *625:A 2.80112e-05
3 *618:B 0
4 *617:C_N 0
5 *621:B 0.00010821
6 *613:S 0
7 *646:A 0.000243697
8 *624:B 0.000254168
9 *615:A 1.5048e-05
10 *742:B 0.000330987
11 *745:X 0.000224668
12 *181:88 0.000666159
13 *181:71 0.000992064
14 *181:69 0.000401088
15 *181:59 0.000325861
16 *181:55 0.00047013
17 *181:46 0.000667894
18 *181:40 0.000304769
19 *181:31 0.000329956
20 *181:12 0.000470977
21 *181:10 0.000267719
22 *621:B *182:30 8.19612e-05
23 *624:B *624:C 0.000151925
24 *646:A *646:B 1.83408e-05
25 *742:B *182:100 0.000139352
26 *742:B *182:108 5.3304e-05
27 *181:46 *182:81 8.62876e-05
28 *181:55 *624:C 4.65317e-05
29 *181:55 *182:58 0.00014398
30 *181:55 *182:60 2.93431e-05
31 *181:59 *618:C 2.86398e-05
32 *181:59 *182:58 9.41704e-05
33 *181:69 *182:58 5.3304e-05
34 *615:B *615:A 1.4345e-05
35 *615:B *181:31 0.000188738
36 *618:A *181:59 4.08664e-05
37 *618:A *181:69 5.3304e-05
38 *620:A *181:88 0.000101506
39 *620:B *181:88 0.000139352
40 *625:C_N *625:A 5.56356e-05
41 *625:C_N *181:40 0.000264559
42 *628:A2 *646:A 0.000193034
43 *743:B *181:31 0.000139357
44 *743:B *181:40 9.16459e-05
45 *746:A *624:B 5.37348e-06
46 *88:10 *181:10 8.4047e-05
47 *88:34 *742:B 0
48 *141:8 *181:10 0
49 *141:27 *181:10 0.00018282
50 *141:33 *181:46 0.000139647
51 *141:33 *181:69 0
52 *143:16 *742:B 0
53 *143:16 *181:12 0
54 *146:23 *181:88 0.000160006
55 *148:79 *181:46 0
56 *148:79 *181:69 5.86204e-05
57 *151:8 *621:B 0.000143373
58 *151:10 *646:A 5.33144e-05
59 *151:10 *181:71 0.000111852
60 *151:74 *181:69 0.000152212
61 *151:74 *181:71 2.46345e-05
62 *164:8 *742:B 0
63 *164:12 *181:31 0.000140259
64 *164:18 *742:B 9.48381e-06
65 *164:18 *181:10 3.884e-05
66 *164:18 *181:12 1.86973e-05
67 *165:14 *742:B 7.72655e-05
68 *165:40 *615:A 0
69 *165:40 *181:31 2.44913e-05
70 *165:40 *181:40 0.000119313
71 *165:79 *181:69 0
72 *180:20 *181:46 1.83564e-05
*RES
1 *745:X *181:10 41.9564 
2 *181:10 *181:12 0.849286 
3 *181:12 *742:B 44.235 
4 *181:12 *181:31 18.5007 
5 *181:31 *615:A 23.4971 
6 *181:31 *181:40 5.38571 
7 *181:40 *181:46 31.9057 
8 *181:46 *624:B 26.48 
9 *181:46 *181:55 4.90929 
10 *181:55 *181:59 2.77571 
11 *181:59 *181:69 19.7021 
12 *181:69 *181:71 1.90571 
13 *181:71 *646:A 42.8886 
14 *181:71 *181:88 27.0764 
15 *181:88 *613:S 23 
16 *181:69 *621:B 41.0243 
17 *181:59 *617:C_N 23 
18 *181:55 *618:B 23 
19 *181:40 *625:A 23.6214 
20 *181:10 *689:B 38 
*END

*D_NET *182 0.00758697
*CONN
*I *742:C I *D sky130_fd_sc_hd__nor3_2
*I *689:C_N I *D sky130_fd_sc_hd__nor3b_2
*I *612:B I *D sky130_fd_sc_hd__nand2_2
*I *617:B I *D sky130_fd_sc_hd__nor3b_2
*I *625:B I *D sky130_fd_sc_hd__or3b_2
*I *624:C I *D sky130_fd_sc_hd__and3b_2
*I *618:C I *D sky130_fd_sc_hd__and3_2
*I *646:B I *D sky130_fd_sc_hd__or3_2
*I *621:A_N I *D sky130_fd_sc_hd__and3b_2
*I *613:A1 I *D sky130_fd_sc_hd__mux2_1
*I *746:X O *D sky130_fd_sc_hd__clkdlybuf4s25_1
*CAP
1 *742:C 0
2 *689:C_N 0
3 *612:B 2.32701e-05
4 *617:B 2.31178e-05
5 *625:B 0
6 *624:C 0.000158728
7 *618:C 4.9933e-05
8 *646:B 0.000326512
9 *621:A_N 0
10 *613:A1 0.00016159
11 *746:X 0.00010805
12 *182:108 0.000132899
13 *182:100 0.000144906
14 *182:81 0.000143567
15 *182:60 0.000317791
16 *182:58 0.000201617
17 *182:43 0.000283501
18 *182:30 0.000713053
19 *182:21 0.000853715
20 *182:8 0.000772102
21 *618:A *624:C 5.40337e-05
22 *618:A *182:58 6.50258e-05
23 *618:A *182:60 2.46906e-05
24 *621:B *182:30 8.19612e-05
25 *624:B *624:C 0.000151925
26 *628:A2 *646:B 0.000246417
27 *646:A *646:B 1.83408e-05
28 *742:B *182:100 0.000139352
29 *742:B *182:108 5.3304e-05
30 *746:A *624:C 4.8117e-05
31 *50:8 *646:B 1.13812e-05
32 *88:34 *613:A1 0
33 *88:34 *182:8 0
34 *130:57 *646:B 2.39877e-05
35 *141:8 *182:108 0.000246748
36 *141:33 *182:81 2.37498e-05
37 *143:8 *612:B 5.3304e-05
38 *143:16 *613:A1 8.68472e-05
39 *143:16 *182:8 4.99753e-06
40 *143:16 *182:108 0.000219882
41 *151:8 *182:30 8.06804e-06
42 *151:10 *646:B 0.000167355
43 *151:74 *646:B 0.000118174
44 *151:74 *182:43 0.000103949
45 *151:74 *182:58 7.48331e-05
46 *164:8 *182:8 4.334e-05
47 *165:8 *182:8 0
48 *165:14 *182:100 0.000126914
49 *165:14 *182:108 5.50049e-05
50 *165:29 *612:B 5.3304e-05
51 *165:67 *624:C 0.000242234
52 *165:71 *617:B 0
53 *165:71 *624:C 4.05745e-05
54 *165:79 *182:30 0.00010255
55 *181:46 *182:81 8.62876e-05
56 *181:55 *624:C 4.65317e-05
57 *181:55 *182:58 0.00014398
58 *181:55 *182:60 2.93431e-05
59 *181:59 *618:C 2.86398e-05
60 *181:59 *182:58 9.41704e-05
61 *181:69 *182:58 5.3304e-05
*RES
1 *746:X *182:8 39.5536 
2 *182:8 *613:A1 41.3143 
3 *182:8 *182:21 23.2443 
4 *182:21 *621:A_N 23 
5 *182:21 *182:30 20.3857 
6 *182:30 *646:B 45.8093 
7 *182:30 *182:43 1.55357 
8 *182:43 *618:C 38.6214 
9 *182:43 *182:58 19.205 
10 *182:58 *182:60 0.621429 
11 *182:60 *624:C 28.3805 
12 *182:60 *182:81 32.6721 
13 *182:81 *625:B 23 
14 *182:58 *617:B 23.4971 
15 *746:X *182:100 24.5743 
16 *182:100 *182:108 33.9357 
17 *182:108 *612:B 23.6214 
18 *182:108 *689:C_N 23 
19 *182:100 *742:C 23 
*END

*D_NET *183 0.00847808
*CONN
*I *703:B I *D sky130_fd_sc_hd__and2b_2
*I *701:A_N I *D sky130_fd_sc_hd__nand2b_2
*I *730:B I *D sky130_fd_sc_hd__nand2_2
*I *644:B I *D sky130_fd_sc_hd__or2_2
*I *638:B2 I *D sky130_fd_sc_hd__a221o_2
*I *645:A I *D sky130_fd_sc_hd__nor2_2
*I *655:B2 I *D sky130_fd_sc_hd__a2bb2o_2
*I *648:A2 I *D sky130_fd_sc_hd__a32o_2
*I *760:X O *D sky130_fd_sc_hd__clkdlybuf4s25_1
*CAP
1 *703:B 0
2 *701:A_N 0.000138089
3 *730:B 0
4 *644:B 0.000162503
5 *638:B2 0.00024982
6 *645:A 0
7 *655:B2 6.69539e-05
8 *648:A2 0
9 *760:X 0.000149623
10 *183:59 0.000434206
11 *183:34 0.000287769
12 *183:30 0.000375557
13 *183:26 0.000512941
14 *183:22 0.000830237
15 *183:12 0.00079003
16 *183:6 0.000307642
17 *637:A2 *183:34 6.33771e-05
18 *638:A2 *638:B2 3.02431e-05
19 *647:A2 *183:26 3.80935e-05
20 *647:A2 *183:30 2.09106e-05
21 *647:B2 *183:30 1.40856e-05
22 *647:C1 *183:30 0.000123231
23 *650:A3 *183:22 5.3304e-05
24 *651:A1_N *183:22 9.88809e-05
25 *651:B2 *183:22 0.00015095
26 *712:A_N *638:B2 4.13945e-05
27 *31:31 *638:B2 0
28 *41:10 *638:B2 7.81073e-05
29 *46:10 *701:A_N 7.86431e-05
30 *46:10 *183:12 0.000165575
31 *48:10 *644:B 5.45652e-05
32 *51:8 *183:22 4.21362e-05
33 *51:8 *183:26 0.000676249
34 *53:10 *644:B 5.58003e-05
35 *53:10 *701:A_N 5.3304e-05
36 *53:16 *701:A_N 2.37148e-05
37 *101:10 *701:A_N 1.13812e-05
38 *102:30 *183:12 5.50106e-05
39 *109:22 *638:B2 1.83667e-05
40 *110:43 *638:B2 9.21347e-06
41 *115:8 *701:A_N 5.42521e-05
42 *129:10 *183:26 5.76359e-05
43 *146:27 *655:B2 4.7088e-05
44 *146:27 *183:34 0.000213897
45 *146:29 *183:34 5.75756e-06
46 *149:47 *638:B2 1.43071e-05
47 *151:40 *655:B2 0.000136905
48 *151:40 *183:34 0.000392072
49 *154:36 *183:30 0.000170173
50 *154:44 *638:B2 3.67392e-05
51 *154:44 *644:B 7.73447e-05
52 *154:44 *183:26 6.17437e-06
53 *154:44 *183:30 2.64616e-05
54 *154:63 *644:B 3.50618e-05
55 *154:63 *183:26 6.55954e-05
56 *154:63 *183:30 2.64616e-05
57 *158:48 *644:B 5.58003e-05
58 *158:64 *183:12 0
59 *171:10 *183:22 0.00011745
60 *176:64 *183:22 0.000232049
61 *177:71 *638:B2 0.000245954
62 *177:71 *644:B 6.33771e-05
63 *179:72 *701:A_N 0.000135616
*RES
1 *760:X *183:6 25.5271 
2 *183:6 *183:12 18.3557 
3 *183:12 *183:22 25.2121 
4 *183:22 *183:26 9.69429 
5 *183:26 *183:30 4.45357 
6 *183:30 *183:34 21.1314 
7 *183:34 *648:A2 38 
8 *183:34 *655:B2 39.9057 
9 *183:30 *645:A 23 
10 *183:26 *183:59 15.4971 
11 *183:59 *638:B2 43.4064 
12 *183:59 *644:B 41.5836 
13 *183:22 *730:B 23 
14 *183:12 *701:A_N 41.5836 
15 *183:6 *703:B 23 
*END

*D_NET *184 0.00913723
*CONN
*I *667:A2 I *D sky130_fd_sc_hd__a211o_2
*I *718:B I *D sky130_fd_sc_hd__and2_2
*I *719:B I *D sky130_fd_sc_hd__nor2_2
*I *655:A1_N I *D sky130_fd_sc_hd__a2bb2o_2
*I *666:B2 I *D sky130_fd_sc_hd__a221o_2
*I *648:B2 I *D sky130_fd_sc_hd__a32o_2
*I *724:C_N I *D sky130_fd_sc_hd__or3b_2
*I *761:X O *D sky130_fd_sc_hd__clkdlybuf4s25_1
*CAP
1 *667:A2 0
2 *718:B 0
3 *719:B 0
4 *655:A1_N 0
5 *666:B2 0
6 *648:B2 0.000118997
7 *724:C_N 0
8 *761:X 0.000309417
9 *184:80 0.000572683
10 *184:63 0.000899702
11 *184:59 0.000734506
12 *184:45 0.000747374
13 *184:35 0.000609001
14 *184:23 0.000744912
15 *184:10 0.000666216
16 *184:80 *666:A1 2.61725e-05
17 Y[4] *184:10 0
18 *666:B1 *184:80 7.37176e-05
19 *667:A1 *184:23 9.5877e-05
20 *667:A1 *184:35 3.17027e-05
21 *667:B1 *184:35 4.96717e-05
22 *683:B1 *184:80 0
23 *720:B *184:45 0.000163361
24 *13:11 *184:23 0
25 *31:23 *184:80 0.000243047
26 *31:31 *648:B2 0
27 *31:31 *184:80 0
28 *56:14 *184:59 0.00030317
29 *57:10 *184:59 0
30 *58:10 *184:59 3.71887e-05
31 *62:10 *184:59 0
32 *65:10 *184:80 0
33 *69:10 *184:23 5.50106e-05
34 *99:24 *184:35 0.000437521
35 *117:8 *184:35 0.00010018
36 *117:8 *184:45 0.000107476
37 *119:8 *184:45 5.3304e-05
38 *119:10 *184:45 0.000136486
39 *119:79 *184:45 2.46345e-05
40 *120:14 *184:35 0.000223043
41 *121:10 *184:10 0
42 *123:8 *184:10 5.03449e-05
43 *123:8 *184:23 0.000108569
44 *146:27 *648:B2 2.99613e-05
45 *146:68 *184:63 6.1789e-05
46 *146:76 *184:59 0
47 *146:76 *184:80 0
48 *149:10 *648:B2 5.30705e-05
49 *149:10 *184:80 0.000135301
50 *149:84 *184:80 0.000341854
51 *149:118 *184:80 0
52 *151:29 *184:63 0.000189857
53 *151:40 *184:63 0.000100477
54 *154:63 *184:59 2.76611e-06
55 *159:18 *184:35 0.0003421
56 *159:18 *184:45 5.50106e-05
57 *172:8 *184:59 0.000101757
58 *176:54 *184:35 0
*RES
1 *761:X *184:10 43.6964 
2 *184:10 *724:C_N 38 
3 *184:10 *184:23 21.9186 
4 *184:23 *184:35 42.8014 
5 *184:35 *184:45 35.2821 
6 *184:45 *184:59 41.5379 
7 *184:59 *184:63 19.5364 
8 *184:63 *648:B2 40.61 
9 *184:63 *184:80 28.195 
10 *184:80 *666:B2 23 
11 *184:59 *655:A1_N 23 
12 *184:45 *719:B 23 
13 *184:35 *718:B 23 
14 *184:23 *667:A2 23 
*END

*D_NET *185 0.00902247
*CONN
*I *725:B I *D sky130_fd_sc_hd__and2b_2
*I *696:B I *D sky130_fd_sc_hd__nand2_2
*I *698:B I *D sky130_fd_sc_hd__or2_4
*I *657:A1 I *D sky130_fd_sc_hd__a211o_2
*I *664:A1_N I *D sky130_fd_sc_hd__a2bb2o_2
*I *675:B2 I *D sky130_fd_sc_hd__a22o_2
*I *762:X O *D sky130_fd_sc_hd__clkdlybuf4s25_1
*CAP
1 *725:B 0.000257624
2 *696:B 0.00015127
3 *698:B 0
4 *657:A1 0
5 *664:A1_N 0
6 *675:B2 0
7 *762:X 0.0001107
8 *185:68 0.000460051
9 *185:59 0.000277705
10 *185:50 0.000337536
11 *185:30 0.000328287
12 *185:22 0.000443811
13 *185:16 0.00147737
14 *185:6 0.00136156
15 *185:30 *666:A1 0.000400867
16 *185:30 *186:29 1.01436e-05
17 Y[5] *185:59 0
18 *657:C1 *185:50 0
19 *662:A *185:16 6.84456e-05
20 *662:B *185:16 0.000103647
21 *698:A *696:B 2.18506e-05
22 *725:A_N *725:B 0.00012435
23 *727:A3 *725:B 8.51432e-05
24 *738:A2 *185:16 0.000265439
25 *738:C1 *185:16 6.9805e-05
26 *59:10 *185:50 0
27 *60:10 *185:50 1.76557e-05
28 *64:10 *185:16 5.50049e-05
29 *68:18 *185:16 0.000556067
30 *68:18 *185:22 6.62431e-05
31 *68:18 *185:30 3.71311e-05
32 *70:10 *185:16 0.000225399
33 *97:63 *185:59 4.48671e-05
34 *98:8 *185:59 8.62876e-05
35 *99:24 *185:50 0.000272383
36 *117:8 *185:50 0
37 *123:12 *185:6 4.6595e-05
38 *123:12 *185:16 0.000135143
39 *123:25 *185:16 0.000102488
40 *125:10 *725:B 3.55887e-05
41 *137:10 *185:16 2.30292e-05
42 *146:76 *185:50 0.000193264
43 *146:89 *185:50 6.07611e-06
44 *149:103 *185:30 0.000148814
45 *149:118 *185:50 0.000230604
46 *160:14 *696:B 9.41492e-05
47 *160:14 *725:B 0.00025307
48 *160:14 *185:68 3.70094e-05
49 *176:35 *185:50 0
50 *179:60 *725:B 0
51 *179:60 *185:59 0
52 *179:60 *185:68 0
*RES
1 *762:X *185:6 24.5743 
2 *185:6 *185:16 22.2679 
3 *185:16 *185:22 2.45464 
4 *185:22 *185:30 37.7161 
5 *185:30 *675:B2 23 
6 *185:22 *664:A1_N 23 
7 *185:16 *185:50 38.9279 
8 *185:50 *657:A1 23 
9 *185:6 *185:59 19.3707 
10 *185:59 *698:B 38 
11 *185:59 *185:68 1.20143 
12 *185:68 *696:B 41.045 
13 *185:68 *725:B 44.8771 
*END

*D_NET *186 0.00542901
*CONN
*I *694:B I *D sky130_fd_sc_hd__and2_2
*I *728:B I *D sky130_fd_sc_hd__nand2b_2
*I *674:A1 I *D sky130_fd_sc_hd__o21ai_2
*I *682:A1 I *D sky130_fd_sc_hd__a21o_2
*I *666:A1 I *D sky130_fd_sc_hd__a221o_2
*I *693:B I *D sky130_fd_sc_hd__nor2_2
*I *763:X O *D sky130_fd_sc_hd__clkdlybuf4s25_1
*CAP
1 *694:B 0
2 *728:B 9.76392e-05
3 *674:A1 0
4 *682:A1 9.0774e-05
5 *666:A1 0.000413128
6 *693:B 2.97696e-05
7 *763:X 0.000535935
8 *186:60 9.76392e-05
9 *186:29 0.000720534
10 *186:23 0.000371217
11 *186:12 0.0003654
12 *186:10 0.000716981
13 *682:A1 *675:A1 2.27397e-05
14 *675:B1 *682:A1 0.000270682
15 *679:B *728:B 0.000119199
16 *693:A *186:12 0
17 *694:A *728:B 0.00014196
18 *7:11 *186:10 3.53115e-05
19 *15:9 *186:10 7.88926e-05
20 *66:8 *666:A1 0
21 *68:18 *666:A1 3.91386e-05
22 *74:8 *186:23 0
23 *76:10 *186:23 0
24 *76:10 *186:29 0
25 *92:14 *186:10 1.14452e-05
26 *92:14 *186:12 0.000243596
27 *92:14 *186:23 1.01436e-05
28 *93:32 *186:23 0
29 *139:10 *186:10 0
30 *146:76 *666:A1 0
31 *146:89 *186:29 0
32 *146:107 *682:A1 0.000106445
33 *146:107 *186:29 0
34 *149:84 *666:A1 9.45147e-05
35 *149:103 *666:A1 2.04332e-05
36 *179:41 *728:B 0.000358305
37 *184:80 *666:A1 2.61725e-05
38 *185:30 *666:A1 0.000400867
39 *185:30 *186:29 1.01436e-05
*RES
1 *763:X *186:10 45.7679 
2 *186:10 *186:12 3.31429 
3 *186:12 *693:B 38.6214 
4 *186:12 *186:23 2.96214 
5 *186:23 *186:29 3.72857 
6 *186:29 *666:A1 46.0786 
7 *186:29 *682:A1 41.48 
8 *186:23 *674:A1 38 
9 *186:10 *186:60 15 
10 *186:60 *728:B 27.4536 
11 *186:60 *694:B 23 
*END

*D_NET *187 0.00579255
*CONN
*I *683:A1_N I *D sky130_fd_sc_hd__a2bb2o_2
*I *675:A1 I *D sky130_fd_sc_hd__a22o_2
*I *688:B I *D sky130_fd_sc_hd__nand2b_2
*I *691:B I *D sky130_fd_sc_hd__and2_2
*I *690:B I *D sky130_fd_sc_hd__nor2_2
*I *764:X O *D sky130_fd_sc_hd__clkdlybuf4s25_1
*CAP
1 *683:A1_N 3.10088e-05
2 *675:A1 0.000775156
3 *688:B 4.01155e-05
4 *691:B 3.80122e-05
5 *690:B 0.00025355
6 *764:X 8.25057e-05
7 *187:47 0.00129891
8 *187:34 0.000702584
9 *187:10 0.000349852
10 *187:6 0.000310516
11 *675:B1 *675:A1 0.000397596
12 *682:A1 *675:A1 2.27397e-05
13 *682:B1 *675:A1 4.60777e-05
14 *683:B1 *675:A1 9.58714e-05
15 *684:A1 *187:47 0.000327273
16 *684:A2 *683:A1_N 6.36377e-06
17 *684:A2 *688:B 0
18 *684:A2 *187:47 6.2843e-05
19 *684:C1 *683:A1_N 0
20 *684:C1 *187:47 7.59964e-05
21 *688:A_N *187:6 5.12254e-05
22 *688:A_N *187:34 6.17437e-06
23 *690:A *690:B 0.000160169
24 *87:10 *187:34 2.92911e-06
25 *88:10 *690:B 0.000216721
26 *88:10 *187:10 0.000139647
27 *89:12 *691:B 5.3304e-05
28 *91:40 *675:A1 1.65191e-05
29 *141:27 *690:B 7.13587e-05
30 *146:107 *675:A1 8.15639e-05
31 *146:107 *683:A1_N 5.67554e-06
32 *162:10 *690:B 4.6318e-06
33 *162:10 *187:10 6.32688e-05
34 *180:49 *675:A1 2.38602e-06
*RES
1 *764:X *187:6 24.0979 
2 *187:6 *187:10 16.9057 
3 *187:10 *690:B 43.9864 
4 *187:10 *691:B 38.6214 
5 *187:6 *187:34 2.05071 
6 *187:34 *688:B 23.8493 
7 *187:34 *187:47 8.88643 
8 *187:47 *675:A1 34.6207 
9 *187:47 *683:A1_N 23.7457 
*END

*D_NET *188 0.0067019
*CONN
*I *619:A1 I *D sky130_fd_sc_hd__a32o_2
*I *733:A1 I *D sky130_fd_sc_hd__a31o_2
*I *707:B I *D sky130_fd_sc_hd__nand2b_2
*I *614:A1 I *D sky130_fd_sc_hd__o211a_2
*I *732:A I *D sky130_fd_sc_hd__nand2_2
*I *765:X O *D sky130_fd_sc_hd__clkdlybuf4s25_1
*CAP
1 *619:A1 0.000267204
2 *733:A1 0
3 *707:B 0
4 *614:A1 0
5 *732:A 0
6 *765:X 0
7 *188:61 0.000611891
8 *188:48 0.00032181
9 *188:40 0.00135845
10 *188:29 0.000180688
11 *188:16 0.00039995
12 *188:8 0.000747454
13 *188:6 0.000635739
14 *188:4 0.000311376
15 *619:B1 *619:A1 3.80615e-05
16 *631:A *188:40 0
17 *765:A *188:29 6.30761e-05
18 *770:A *188:6 3.7122e-06
19 *770:A *188:8 8.04786e-05
20 *770:A *188:16 2.81066e-05
21 *1:15 *188:29 1.28818e-05
22 *88:34 *188:40 0.000274229
23 *106:14 *188:40 5.36457e-05
24 *108:8 *188:48 0.000312342
25 *108:8 *188:61 0.000678259
26 *131:18 *188:16 0
27 *131:18 *188:29 0.00011035
28 *131:18 *188:40 0
29 *152:10 *188:40 2.5415e-05
30 *155:93 *188:29 6.39489e-06
31 *166:47 *188:61 0.00013449
32 *166:55 *188:40 0
33 *178:27 *188:48 4.58924e-05
*RES
1 *765:X *188:4 23 
2 *188:4 *188:6 0.621429 
3 *188:6 *188:8 2.52714 
4 *188:8 *188:16 35.3857 
5 *188:16 *732:A 23 
6 *188:8 *188:29 34.1688 
7 *188:29 *614:A1 23 
8 *188:6 *188:40 39.6529 
9 *188:40 *188:48 35.3857 
10 *188:48 *707:B 23 
11 *188:40 *188:61 39.6736 
12 *188:61 *733:A1 23 
13 *188:4 *619:A1 26.48 
*END
