*SPEF "ieee 1481-1999"
*DESIGN "alu8"
*DATE "17:13:38 Wednesday September 16, 2026"
*VENDOR "The OpenROAD Project"
*PROGRAM "OpenROAD"
*VERSION "dcf36133a369abc8f3c5e5738cd4d82e4903c0e0"
*DESIGN_FLOW "NAME_SCOPE LOCAL" "PIN_CAP NONE"
*DIVIDER /
*DELIMITER :
*BUS_DELIMITER []
*T_UNIT 1 NS
*C_UNIT 1 PF
*R_UNIT 1 OHM
*L_UNIT 1 HENRY

*NAME_MAP
*1 A[0]
*2 A[1]
*3 A[2]
*4 A[3]
*5 A[4]
*6 A[5]
*7 A[6]
*8 A[7]
*9 B[0]
*10 B[1]
*11 B[2]
*12 B[3]
*13 B[4]
*14 B[5]
*15 B[6]
*16 B[7]
*17 CARRY
*18 OP[0]
*19 OP[1]
*20 OP[2]
*23 Y[0]
*24 Y[1]
*25 Y[2]
*26 Y[3]
*27 Y[4]
*28 Y[5]
*29 Y[6]
*30 Y[7]
*31 _000_
*32 _001_
*33 _002_
*34 _003_
*35 _004_
*36 _005_
*37 _006_
*38 _007_
*39 _008_
*40 _009_
*41 _010_
*42 _011_
*43 _012_
*44 _013_
*45 _014_
*46 _015_
*47 _016_
*48 _017_
*49 _018_
*50 _019_
*51 _020_
*52 _021_
*53 _022_
*54 _023_
*55 _024_
*56 _025_
*57 _026_
*58 _027_
*59 _028_
*60 _029_
*61 _030_
*62 _031_
*63 _032_
*64 _033_
*65 _034_
*66 _035_
*67 _036_
*68 _037_
*69 _038_
*70 _039_
*71 _040_
*72 _041_
*73 _042_
*74 _043_
*75 _044_
*76 _045_
*77 _046_
*78 _047_
*79 _048_
*80 _049_
*81 _050_
*82 _051_
*83 _052_
*84 _053_
*85 _054_
*86 _055_
*87 _056_
*88 _057_
*89 _058_
*90 _059_
*91 _060_
*92 _061_
*93 _062_
*94 _063_
*95 _064_
*96 _065_
*97 _066_
*98 _067_
*99 _068_
*100 _069_
*101 _070_
*102 _071_
*103 _072_
*104 _073_
*105 _074_
*106 _075_
*107 _076_
*108 _077_
*109 _078_
*110 _079_
*111 _080_
*112 _081_
*113 _082_
*114 _083_
*115 _084_
*116 _085_
*117 _086_
*118 _087_
*119 _088_
*120 _089_
*121 _090_
*122 _091_
*123 _092_
*124 _093_
*125 _094_
*126 _095_
*127 _096_
*128 _097_
*129 _098_
*130 _099_
*131 _100_
*132 _101_
*133 _102_
*134 _103_
*135 _104_
*136 _105_
*137 _106_
*138 _107_
*139 _108_
*140 _109_
*141 _110_
*142 _111_
*143 _112_
*144 _113_
*145 _114_
*146 _115_
*147 _116_
*148 _117_
*149 _118_
*150 _119_
*151 _120_
*152 _121_
*153 _122_
*154 _123_
*155 net1
*156 net10
*157 net11
*158 net12
*159 net13
*160 net14
*161 net15
*162 net16
*163 net17
*164 net18
*165 net19
*166 net2
*167 net20
*168 net21
*169 net22
*170 net23
*171 net24
*172 net25
*173 net26
*174 net27
*175 net28
*176 net29
*177 net3
*178 net30
*179 net31
*180 net32
*181 net33
*182 net34
*183 net4
*184 net5
*185 net6
*186 net7
*187 net8
*188 net9
*189 FILLER_0_100
*190 FILLER_0_103
*191 FILLER_0_106
*192 FILLER_0_109
*193 FILLER_0_113
*194 FILLER_0_27
*195 FILLER_0_3
*196 FILLER_0_34
*197 FILLER_0_37
*198 FILLER_0_47
*199 FILLER_0_50
*200 FILLER_0_53
*201 FILLER_0_57
*202 FILLER_0_6
*203 FILLER_0_75
*204 FILLER_0_78
*205 FILLER_0_81
*206 FILLER_0_85
*207 FILLER_0_88
*208 FILLER_0_9
*209 FILLER_0_91
*210 FILLER_0_94
*211 FILLER_0_97
*212 FILLER_10_108
*213 FILLER_10_111
*214 FILLER_10_3
*215 FILLER_10_45
*216 FILLER_10_48
*217 FILLER_10_56
*218 FILLER_10_59
*219 FILLER_10_75
*220 FILLER_10_85
*221 FILLER_10_88
*222 FILLER_10_91
*223 FILLER_10_94
*224 FILLER_11_103
*225 FILLER_11_113
*226 FILLER_11_23
*227 FILLER_11_40
*228 FILLER_11_44
*229 FILLER_11_47
*230 FILLER_11_57
*231 FILLER_11_60
*232 FILLER_11_63
*233 FILLER_11_72
*234 FILLER_11_75
*235 FILLER_11_84
*236 FILLER_11_87
*237 FILLER_11_90
*238 FILLER_11_93
*239 FILLER_12_103
*240 FILLER_12_18
*241 FILLER_12_21
*242 FILLER_12_24
*243 FILLER_12_27
*244 FILLER_12_29
*245 FILLER_12_3
*246 FILLER_12_34
*247 FILLER_12_37
*248 FILLER_12_40
*249 FILLER_12_43
*250 FILLER_12_63
*251 FILLER_12_66
*252 FILLER_12_69
*253 FILLER_12_78
*254 FILLER_12_81
*255 FILLER_12_85
*256 FILLER_13_113
*257 FILLER_13_17
*258 FILLER_13_20
*259 FILLER_13_29
*260 FILLER_13_32
*261 FILLER_13_35
*262 FILLER_13_38
*263 FILLER_13_41
*264 FILLER_13_44
*265 FILLER_13_47
*266 FILLER_13_50
*267 FILLER_13_53
*268 FILLER_13_57
*269 FILLER_13_60
*270 FILLER_13_63
*271 FILLER_13_66
*272 FILLER_13_69
*273 FILLER_13_72
*274 FILLER_13_75
*275 FILLER_13_78
*276 FILLER_13_81
*277 FILLER_13_94
*278 FILLER_14_109
*279 FILLER_14_112
*280 FILLER_14_18
*281 FILLER_14_29
*282 FILLER_14_46
*283 FILLER_14_49
*284 FILLER_14_60
*285 FILLER_14_63
*286 FILLER_14_66
*287 FILLER_14_69
*288 FILLER_14_72
*289 FILLER_14_75
*290 FILLER_14_78
*291 FILLER_14_81
*292 FILLER_14_85
*293 FILLER_14_88
*294 FILLER_14_91
*295 FILLER_15_102
*296 FILLER_15_113
*297 FILLER_15_15
*298 FILLER_15_21
*299 FILLER_15_24
*300 FILLER_15_27
*301 FILLER_15_3
*302 FILLER_15_30
*303 FILLER_15_38
*304 FILLER_15_41
*305 FILLER_15_44
*306 FILLER_15_47
*307 FILLER_15_65
*308 FILLER_15_68
*309 FILLER_15_71
*310 FILLER_15_79
*311 FILLER_15_82
*312 FILLER_15_85
*313 FILLER_15_88
*314 FILLER_15_91
*315 FILLER_15_99
*316 FILLER_16_102
*317 FILLER_16_11
*318 FILLER_16_110
*319 FILLER_16_113
*320 FILLER_16_29
*321 FILLER_16_40
*322 FILLER_16_43
*323 FILLER_16_46
*324 FILLER_16_73
*325 FILLER_16_83
*326 FILLER_16_85
*327 FILLER_16_88
*328 FILLER_17_100
*329 FILLER_17_106
*330 FILLER_17_109
*331 FILLER_17_113
*332 FILLER_17_13
*333 FILLER_17_40
*334 FILLER_17_49
*335 FILLER_17_64
*336 FILLER_17_67
*337 FILLER_17_70
*338 FILLER_17_73
*339 FILLER_17_88
*340 FILLER_17_94
*341 FILLER_17_97
*342 FILLER_18_100
*343 FILLER_18_103
*344 FILLER_18_106
*345 FILLER_18_109
*346 FILLER_18_113
*347 FILLER_18_12
*348 FILLER_18_15
*349 FILLER_18_18
*350 FILLER_18_21
*351 FILLER_18_24
*352 FILLER_18_27
*353 FILLER_18_29
*354 FILLER_18_3
*355 FILLER_18_32
*356 FILLER_18_37
*357 FILLER_18_40
*358 FILLER_18_43
*359 FILLER_18_46
*360 FILLER_18_6
*361 FILLER_18_65
*362 FILLER_18_68
*363 FILLER_18_71
*364 FILLER_18_74
*365 FILLER_18_83
*366 FILLER_18_85
*367 FILLER_18_88
*368 FILLER_18_9
*369 FILLER_18_91
*370 FILLER_18_94
*371 FILLER_18_97
*372 FILLER_1_101
*373 FILLER_1_104
*374 FILLER_1_107
*375 FILLER_1_110
*376 FILLER_1_113
*377 FILLER_1_3
*378 FILLER_1_37
*379 FILLER_1_40
*380 FILLER_1_43
*381 FILLER_1_46
*382 FILLER_1_49
*383 FILLER_1_6
*384 FILLER_1_77
*385 FILLER_1_87
*386 FILLER_1_9
*387 FILLER_1_95
*388 FILLER_1_98
*389 FILLER_2_102
*390 FILLER_2_105
*391 FILLER_2_108
*392 FILLER_2_111
*393 FILLER_2_21
*394 FILLER_2_26
*395 FILLER_2_3
*396 FILLER_2_36
*397 FILLER_2_39
*398 FILLER_2_42
*399 FILLER_2_45
*400 FILLER_2_48
*401 FILLER_2_6
*402 FILLER_2_70
*403 FILLER_2_81
*404 FILLER_2_90
*405 FILLER_2_99
*406 FILLER_3_101
*407 FILLER_3_104
*408 FILLER_3_107
*409 FILLER_3_110
*410 FILLER_3_113
*411 FILLER_3_20
*412 FILLER_3_23
*413 FILLER_3_3
*414 FILLER_3_40
*415 FILLER_3_43
*416 FILLER_3_46
*417 FILLER_3_57
*418 FILLER_3_69
*419 FILLER_3_72
*420 FILLER_3_75
*421 FILLER_3_91
*422 FILLER_3_98
*423 FILLER_4_11
*424 FILLER_4_14
*425 FILLER_4_17
*426 FILLER_4_39
*427 FILLER_4_42
*428 FILLER_4_49
*429 FILLER_4_52
*430 FILLER_4_66
*431 FILLER_4_69
*432 FILLER_4_72
*433 FILLER_4_75
*434 FILLER_4_78
*435 FILLER_4_81
*436 FILLER_4_85
*437 FILLER_4_88
*438 FILLER_4_91
*439 FILLER_4_97
*440 FILLER_5_102
*441 FILLER_5_113
*442 FILLER_5_21
*443 FILLER_5_24
*444 FILLER_5_27
*445 FILLER_5_37
*446 FILLER_5_40
*447 FILLER_5_43
*448 FILLER_5_46
*449 FILLER_5_49
*450 FILLER_5_57
*451 FILLER_5_68
*452 FILLER_5_71
*453 FILLER_5_74
*454 FILLER_5_77
*455 FILLER_5_83
*456 FILLER_6_29
*457 FILLER_6_32
*458 FILLER_6_35
*459 FILLER_6_38
*460 FILLER_6_41
*461 FILLER_6_44
*462 FILLER_6_53
*463 FILLER_6_56
*464 FILLER_6_64
*465 FILLER_6_67
*466 FILLER_6_70
*467 FILLER_6_73
*468 FILLER_6_81
*469 FILLER_6_85
*470 FILLER_6_88
*471 FILLER_6_91
*472 FILLER_7_107
*473 FILLER_7_110
*474 FILLER_7_113
*475 FILLER_7_29
*476 FILLER_7_3
*477 FILLER_7_32
*478 FILLER_7_35
*479 FILLER_7_44
*480 FILLER_7_57
*481 FILLER_7_6
*482 FILLER_7_60
*483 FILLER_7_63
*484 FILLER_7_66
*485 FILLER_7_69
*486 FILLER_7_72
*487 FILLER_7_80
*488 FILLER_7_83
*489 FILLER_7_86
*490 FILLER_7_89
*491 FILLER_7_92
*492 FILLER_7_95
*493 FILLER_7_98
*494 FILLER_8_105
*495 FILLER_8_22
*496 FILLER_8_25
*497 FILLER_8_29
*498 FILLER_8_3
*499 FILLER_8_32
*500 FILLER_8_35
*501 FILLER_8_38
*502 FILLER_8_41
*503 FILLER_8_44
*504 FILLER_8_47
*505 FILLER_8_50
*506 FILLER_8_6
*507 FILLER_8_62
*508 FILLER_8_65
*509 FILLER_8_80
*510 FILLER_8_83
*511 FILLER_8_85
*512 FILLER_8_88
*513 FILLER_8_91
*514 FILLER_9_103
*515 FILLER_9_113
*516 FILLER_9_19
*517 FILLER_9_22
*518 FILLER_9_25
*519 FILLER_9_28
*520 FILLER_9_37
*521 FILLER_9_40
*522 FILLER_9_43
*523 FILLER_9_46
*524 FILLER_9_49
*525 FILLER_9_52
*526 FILLER_9_55
*527 FILLER_9_57
*528 FILLER_9_60
*529 FILLER_9_63
*530 FILLER_9_84
*531 FILLER_9_87
*532 PHY_EDGE_ROW_0_Left_19
*533 PHY_EDGE_ROW_0_Right_0
*534 PHY_EDGE_ROW_10_Left_29
*535 PHY_EDGE_ROW_10_Right_10
*536 PHY_EDGE_ROW_11_Left_30
*537 PHY_EDGE_ROW_11_Right_11
*538 PHY_EDGE_ROW_12_Left_31
*539 PHY_EDGE_ROW_12_Right_12
*540 PHY_EDGE_ROW_13_Left_32
*541 PHY_EDGE_ROW_13_Right_13
*542 PHY_EDGE_ROW_14_Left_33
*543 PHY_EDGE_ROW_14_Right_14
*544 PHY_EDGE_ROW_15_Left_34
*545 PHY_EDGE_ROW_15_Right_15
*546 PHY_EDGE_ROW_16_Left_35
*547 PHY_EDGE_ROW_16_Right_16
*548 PHY_EDGE_ROW_17_Left_36
*549 PHY_EDGE_ROW_17_Right_17
*550 PHY_EDGE_ROW_18_Left_37
*551 PHY_EDGE_ROW_18_Right_18
*552 PHY_EDGE_ROW_1_Left_20
*553 PHY_EDGE_ROW_1_Right_1
*554 PHY_EDGE_ROW_2_Left_21
*555 PHY_EDGE_ROW_2_Right_2
*556 PHY_EDGE_ROW_3_Left_22
*557 PHY_EDGE_ROW_3_Right_3
*558 PHY_EDGE_ROW_4_Left_23
*559 PHY_EDGE_ROW_4_Right_4
*560 PHY_EDGE_ROW_5_Left_24
*561 PHY_EDGE_ROW_5_Right_5
*562 PHY_EDGE_ROW_6_Left_25
*563 PHY_EDGE_ROW_6_Right_6
*564 PHY_EDGE_ROW_7_Left_26
*565 PHY_EDGE_ROW_7_Right_7
*566 PHY_EDGE_ROW_8_Left_27
*567 PHY_EDGE_ROW_8_Right_8
*568 PHY_EDGE_ROW_9_Left_28
*569 PHY_EDGE_ROW_9_Right_9
*570 TAP_TAPCELL_ROW_0_38
*571 TAP_TAPCELL_ROW_0_39
*572 TAP_TAPCELL_ROW_0_40
*573 TAP_TAPCELL_ROW_0_41
*574 TAP_TAPCELL_ROW_10_60
*575 TAP_TAPCELL_ROW_10_61
*576 TAP_TAPCELL_ROW_11_62
*577 TAP_TAPCELL_ROW_11_63
*578 TAP_TAPCELL_ROW_12_64
*579 TAP_TAPCELL_ROW_12_65
*580 TAP_TAPCELL_ROW_13_66
*581 TAP_TAPCELL_ROW_13_67
*582 TAP_TAPCELL_ROW_14_68
*583 TAP_TAPCELL_ROW_14_69
*584 TAP_TAPCELL_ROW_15_70
*585 TAP_TAPCELL_ROW_15_71
*586 TAP_TAPCELL_ROW_16_72
*587 TAP_TAPCELL_ROW_16_73
*588 TAP_TAPCELL_ROW_17_74
*589 TAP_TAPCELL_ROW_17_75
*590 TAP_TAPCELL_ROW_18_76
*591 TAP_TAPCELL_ROW_18_77
*592 TAP_TAPCELL_ROW_18_78
*593 TAP_TAPCELL_ROW_18_79
*594 TAP_TAPCELL_ROW_1_42
*595 TAP_TAPCELL_ROW_1_43
*596 TAP_TAPCELL_ROW_2_44
*597 TAP_TAPCELL_ROW_2_45
*598 TAP_TAPCELL_ROW_3_46
*599 TAP_TAPCELL_ROW_3_47
*600 TAP_TAPCELL_ROW_4_48
*601 TAP_TAPCELL_ROW_4_49
*602 TAP_TAPCELL_ROW_5_50
*603 TAP_TAPCELL_ROW_5_51
*604 TAP_TAPCELL_ROW_6_52
*605 TAP_TAPCELL_ROW_6_53
*606 TAP_TAPCELL_ROW_7_54
*607 TAP_TAPCELL_ROW_7_55
*608 TAP_TAPCELL_ROW_8_56
*609 TAP_TAPCELL_ROW_8_57
*610 TAP_TAPCELL_ROW_9_58
*611 TAP_TAPCELL_ROW_9_59
*612 _124_
*613 _125_
*614 _126_
*615 _127_
*616 _128_
*617 _129_
*618 _130_
*619 _131_
*620 _132_
*621 _133_
*622 _134_
*623 _135_
*624 _136_
*625 _137_
*626 _138_
*627 _139_
*628 _140_
*629 _141_
*630 _142_
*631 _143_
*632 _144_
*633 _145_
*634 _146_
*635 _147_
*636 _148_
*637 _149_
*638 _150_
*639 _151_
*640 _152_
*641 _153_
*642 _154_
*643 _155_
*644 _156_
*645 _157_
*646 _158_
*647 _159_
*648 _160_
*649 _161_
*650 _162_
*651 _163_
*652 _164_
*653 _165_
*654 _166_
*655 _167_
*656 _168_
*657 _169_
*658 _170_
*659 _171_
*660 _172_
*661 _173_
*662 _174_
*663 _175_
*664 _176_
*665 _177_
*666 _178_
*667 _179_
*668 _180_
*669 _181_
*670 _182_
*671 _183_
*672 _184_
*673 _185_
*674 _186_
*675 _187_
*676 _188_
*677 _189_
*678 _190_
*679 _191_
*680 _192_
*681 _193_
*682 _194_
*683 _195_
*684 _196_
*685 _197_
*686 _198_
*687 _199_
*688 _200_
*689 _201_
*690 _202_
*691 _203_
*692 _204_
*693 _205_
*694 _206_
*695 _207_
*696 _208_
*697 _209_
*698 _210_
*699 _211_
*700 _212_
*701 _213_
*702 _214_
*703 _215_
*704 _216_
*705 _217_
*706 _218_
*707 _219_
*708 _220_
*709 _221_
*710 _222_
*711 _223_
*712 _224_
*713 _225_
*714 _226_
*715 _227_
*716 _228_
*717 _229_
*718 _230_
*719 _231_
*720 _232_
*721 _233_
*722 _234_
*723 _235_
*724 _236_
*725 _237_
*726 _238_
*727 _239_
*728 _240_
*729 _241_
*730 _242_
*731 _243_
*732 _244_
*733 _245_
*734 _246_
*735 _247_
*736 _248_
*737 _249_
*738 _250_
*739 _251_
*740 _252_
*741 _253_
*742 _254_
*743 _255_
*744 _256_
*745 fanout33
*746 fanout34
*747 input1
*748 input10
*749 input11
*750 input12
*751 input13
*752 input14
*753 input15
*754 input16
*755 input17
*756 input18
*757 input19
*758 input2
*759 input3
*760 input4
*761 input5
*762 input6
*763 input7
*764 input8
*765 input9
*766 max_cap29
*767 max_cap30
*768 max_cap32
*769 output20
*770 output21
*771 output22
*772 output23
*773 output24
*774 output25
*775 output26
*776 output27
*777 output28
*778 wire31

*PORTS
A[0] I
A[1] I
A[2] I
A[3] I
A[4] I
A[5] I
A[6] I
A[7] I
B[0] I
B[1] I
B[2] I
B[3] I
B[4] I
B[5] I
B[6] I
B[7] I
CARRY O
OP[0] I
OP[1] I
OP[2] I
Y[0] O
Y[1] O
Y[2] O
Y[3] O
Y[4] O
Y[5] O
Y[6] O
Y[7] O

*D_NET *1 0.00211591
*CONN
*P A[0] I
*I *747:A I *D sky130_fd_sc_hd__clkdlybuf4s25_1
*CAP
1 A[0] 0.000578684
2 *747:A 0.000578684
3 *747:A Y[0] 0.000411
4 *747:A *613:A0 0
5 *747:A *614:A1 1.28809e-05
6 *747:A *614:A2 7.80588e-05
7 *747:A *614:B1 5.49995e-05
8 *747:A *614:C1 5.66971e-05
9 *747:A *765:A 0.000344903
*RES
1 A[0] *747:A 26.9719 
*END

*D_NET *2 0.00149904
*CONN
*P A[1] I
*I *758:A I *D sky130_fd_sc_hd__clkdlybuf4s25_1
*CAP
1 A[1] 0.000505064
2 *758:A 0.000505064
3 *758:A *748:A 0.000488918
*RES
1 A[1] *758:A 26.6929 
*END

*D_NET *3 0.00115806
*CONN
*P A[2] I
*I *759:A I *D sky130_fd_sc_hd__clkdlybuf4s25_1
*CAP
1 A[2] 0.00057903
2 *759:A 0.00057903
*RES
1 A[2] *759:A 25.05 
*END

*D_NET *4 0.000835005
*CONN
*P A[3] I
*I *760:A I *D sky130_fd_sc_hd__clkdlybuf4s25_1
*CAP
1 A[3] 0.000314756
2 *760:A 0.000314756
3 *760:A Y[3] 0.000205492
*RES
1 A[3] *760:A 19.2345 
*END

*D_NET *5 0.000956901
*CONN
*P A[4] I
*I *761:A I *D sky130_fd_sc_hd__clkdlybuf4s25_1
*CAP
1 A[4] 0.000478451
2 *761:A 0.000478451
3 *761:A Y[4] 0
4 *761:A *750:A 0
*RES
1 A[4] *761:A 20.4487 
*END

*D_NET *6 0.000821484
*CONN
*P A[5] I
*I *762:A I *D sky130_fd_sc_hd__clkdlybuf4s25_1
*CAP
1 A[5] 0.000308523
2 *762:A 0.000308523
3 *762:A Y[5] 0.000204437
4 *762:A *751:A 0
5 *762:A *123:12 0
*RES
1 A[5] *762:A 19.2345 
*END

*D_NET *7 0.0015364
*CONN
*P A[6] I
*I *763:A I *D sky130_fd_sc_hd__clkdlybuf4s25_1
*CAP
1 A[6] 0.000722189
2 *763:A 0.000722189
3 *763:A *753:A 5.71472e-05
4 *763:A *186:10 3.48705e-05
*RES
1 A[6] *763:A 28.4161 
*END

*D_NET *8 0.000921323
*CONN
*P A[7] I
*I *764:A I *D sky130_fd_sc_hd__clkdlybuf4s25_1
*CAP
1 A[7] 0.000351361
2 *764:A 0.000351361
3 *764:A *754:A 0.0002186
*RES
1 A[7] *764:A 21.683 
*END

*D_NET *9 0.00161832
*CONN
*P B[0] I
*I *765:A I *D sky130_fd_sc_hd__clkdlybuf4s25_1
*CAP
1 B[0] 0.000570614
2 *765:A 0.000570614
3 *765:A Y[0] 8.53865e-06
4 *765:A Y[1] 0
5 *765:A *613:A0 6.70605e-05
6 *765:A *614:A1 5.65899e-05
7 *747:A *765:A 0.000344903
*RES
1 B[0] *765:A 19.764 
*END

*D_NET *10 0.00130656
*CONN
*P B[1] I
*I *748:A I *D sky130_fd_sc_hd__clkdlybuf4s25_1
*CAP
1 B[1] 0.000399174
2 *748:A 0.000399174
3 *748:A *166:12 1.92905e-05
4 *758:A *748:A 0.000488918
*RES
1 B[1] *748:A 25.05 
*END

*D_NET *11 0.00113834
*CONN
*P B[2] I
*I *749:A I *D sky130_fd_sc_hd__clkdlybuf4s25_1
*CAP
1 B[2] 0.000564047
2 *749:A 0.000564047
3 *749:A Y[2] 0
4 *749:A *772:A 1.02504e-05
*RES
1 B[2] *749:A 25.175 
*END

*D_NET *12 0.000852414
*CONN
*P B[3] I
*I *750:A I *D sky130_fd_sc_hd__clkdlybuf4s25_1
*CAP
1 B[3] 0.000333156
2 *750:A 0.000333156
3 *750:A Y[3] 0.000186101
4 *761:A *750:A 0
*RES
1 B[3] *750:A 19.2345 
*END

*D_NET *13 0.0010662
*CONN
*P B[4] I
*I *751:A I *D sky130_fd_sc_hd__clkdlybuf4s25_1
*CAP
1 B[4] 0.000533098
2 *751:A 0.000533098
3 *751:A Y[4] 0
4 *751:A Y[5] 0
5 *751:A *184:23 0
6 *762:A *751:A 0
*RES
1 B[4] *751:A 20.8965 
*END

*D_NET *14 0.000932269
*CONN
*P B[5] I
*I *752:A I *D sky130_fd_sc_hd__clkdlybuf4s25_1
*CAP
1 B[5] 0.000466134
2 *752:A 0.000466134
3 *752:A Y[5] 0
4 *752:A *160:14 0
*RES
1 B[5] *752:A 19.6822 
*END

*D_NET *15 0.00164379
*CONN
*P B[6] I
*I *753:A I *D sky130_fd_sc_hd__clkdlybuf4s25_1
*CAP
1 B[6] 0.000754436
2 *753:A 0.000754436
3 *753:A *186:10 7.77751e-05
4 *763:A *753:A 5.71472e-05
*RES
1 B[6] *753:A 29.1125 
*END

*D_NET *16 0.00145617
*CONN
*P B[7] I
*I *754:A I *D sky130_fd_sc_hd__clkdlybuf4s25_1
*CAP
1 B[7] 0.000543046
2 *754:A 0.000543046
3 *754:A CARRY 0
4 *754:A *744:B2 0
5 *754:A *769:A 0.000151476
6 *754:A *162:8 0
7 *764:A *754:A 0.0002186
*RES
1 B[7] *754:A 22.8303 
*END

*D_NET *17 0.00126016
*CONN
*P CARRY O
*I *769:X O *D sky130_fd_sc_hd__dlymetal6s2s_1
*CAP
1 CARRY 0.000559606
2 *769:X 0.000559606
3 CARRY *769:A 0.00014095
4 CARRY *778:A 0
5 *754:A CARRY 0
*RES
1 *769:X CARRY 21.8322 
*END

*D_NET *18 0.00170231
*CONN
*P OP[0] I
*I *755:A I *D sky130_fd_sc_hd__clkdlybuf4s25_1
*CAP
1 OP[0] 0.000582548
2 *755:A 0.000582548
3 *755:A *744:B2 0
4 *755:A *756:A 5.52631e-05
5 *755:A *757:A 0.000322393
6 *755:A *89:12 5.80217e-05
7 *755:A *141:8 0
8 *755:A *165:20 0.000101535
*RES
1 OP[0] *755:A 25.5625 
*END

*D_NET *19 0.00125082
*CONN
*P OP[1] I
*I *756:A I *D sky130_fd_sc_hd__clkdlybuf4s25_1
*CAP
1 OP[1] 0.00052539
2 *756:A 0.00052539
3 *756:A *757:A 0.000144773
4 *755:A *756:A 5.52631e-05
*RES
1 OP[1] *756:A 26.7506 
*END

*D_NET *20 0.00166621
*CONN
*P OP[2] I
*I *757:A I *D sky130_fd_sc_hd__clkdlybuf4s25_1
*CAP
1 OP[2] 0.000599522
2 *757:A 0.000599522
3 *757:A *614:B1 0
4 *755:A *757:A 0.000322393
5 *756:A *757:A 0.000144773
*RES
1 OP[2] *757:A 24.3463 
*END

*D_NET *23 0.00107042
*CONN
*P Y[0] O
*I *770:X O *D sky130_fd_sc_hd__clkdlybuf4s25_1
*CAP
1 Y[0] 0.000325442
2 *770:X 0.000325442
3 Y[0] *613:A0 0
4 *747:A Y[0] 0.000411
5 *765:A Y[0] 8.53865e-06
*RES
1 *770:X Y[0] 19.6511 
*END

*D_NET *24 0.000759702
*CONN
*P Y[1] O
*I *771:X O *D sky130_fd_sc_hd__clkdlybuf4s25_1
*CAP
1 Y[1] 0.000379851
2 *771:X 0.000379851
3 *765:A Y[1] 0
*RES
1 *771:X Y[1] 23.1077 
*END

*D_NET *25 0.0011251
*CONN
*P Y[2] O
*I *772:X O *D sky130_fd_sc_hd__clkdlybuf4s25_1
*CAP
1 Y[2] 0.000562548
2 *772:X 0.000562548
3 *749:A Y[2] 0
*RES
1 *772:X Y[2] 24.4429 
*END

*D_NET *26 0.000928307
*CONN
*P Y[3] O
*I *773:X O *D sky130_fd_sc_hd__clkdlybuf4s25_1
*CAP
1 Y[3] 0.000268357
2 *773:X 0.000268357
3 *750:A Y[3] 0.000186101
4 *760:A Y[3] 0.000205492
*RES
1 *773:X Y[3] 18.7715 
*END

*D_NET *27 0.000840882
*CONN
*P Y[4] O
*I *774:X O *D sky130_fd_sc_hd__clkdlybuf4s25_1
*CAP
1 Y[4] 0.000420441
2 *774:X 0.000420441
3 Y[4] *184:10 0
4 *751:A Y[4] 0
5 *761:A Y[4] 0
*RES
1 *774:X Y[4] 18.7715 
*END

*D_NET *28 0.000877521
*CONN
*P Y[5] O
*I *775:X O *D sky130_fd_sc_hd__clkdlybuf4s25_1
*CAP
1 Y[5] 0.000336542
2 *775:X 0.000336542
3 Y[5] *185:59 0
4 *751:A Y[5] 0
5 *752:A Y[5] 0
6 *762:A Y[5] 0.000204437
*RES
1 *775:X Y[5] 18.7715 
*END

*D_NET *29 0.00132579
*CONN
*P Y[6] O
*I *776:X O *D sky130_fd_sc_hd__clkdlybuf4s25_1
*CAP
1 Y[6] 0.000662895
2 *776:X 0.000662895
*RES
1 *776:X Y[6] 26.5589 
*END

*D_NET *30 0.00165439
*CONN
*P Y[7] O
*I *777:X O *D sky130_fd_sc_hd__clkbuf_2
*CAP
1 Y[7] 0.000827197
2 *777:X 0.000827197
*RES
1 *777:X Y[7] 29.3268 
*END

*D_NET *31 0.00753885
*CONN
*I *663:B I *D sky130_fd_sc_hd__nor2_2
*I *636:B I *D sky130_fd_sc_hd__nor2_2
*I *627:B I *D sky130_fd_sc_hd__nor2_2
*I *626:A I *D sky130_fd_sc_hd__inv_2
*I *625:X O *D sky130_fd_sc_hd__or3b_2
*CAP
1 *663:B 0
2 *636:B 0
3 *627:B 0.0006061
4 *626:A 0
5 *625:X 0.000328892
6 *31:31 0.00134161
7 *31:23 0.00100213
8 *31:8 0.000595511
9 *627:B *619:B2 0.000109753
10 *627:B *629:A2_N 0
11 *627:B *629:B1 0.000280168
12 *627:B *637:A1 0.000526604
13 *627:B *637:A2 0
14 *627:B *638:A2 0.000408303
15 *627:B *638:B1 0.000100823
16 *627:B *638:C1 0
17 *627:B *640:B1 9.60939e-05
18 *627:B *707:A_N 6.73496e-05
19 *627:B *712:B 1.69208e-05
20 *627:B *109:22 0
21 *627:B *111:14 2.39876e-05
22 *627:B *166:68 7.66493e-05
23 *627:B *177:41 0.000171375
24 *31:8 *625:C_N 5.45307e-05
25 *31:8 *768:A 2.59355e-05
26 *31:8 *32:8 9.83442e-05
27 *31:8 *180:20 1.13883e-05
28 *31:8 *180:56 2.50705e-05
29 *31:23 *657:A2 2.95641e-05
30 *31:23 *665:B1 3.18676e-05
31 *31:23 *666:B2 0.000220095
32 *31:23 *666:C1 7.72663e-05
33 *31:23 *149:10 4.58096e-05
34 *31:23 *149:76 3.14163e-05
35 *31:23 *151:74 0
36 *31:23 *180:56 0.000124595
37 *31:31 *637:A2 0.000235566
38 *31:31 *638:B2 0
39 *31:31 *648:B2 0
40 *31:31 *657:A2 9.22103e-06
41 *31:31 *663:A 2.5045e-05
42 *31:31 *665:B1 1.74352e-05
43 *31:31 *666:B2 0
44 *31:31 *712:B 4.1331e-06
45 *31:31 *146:76 0.000223417
46 *31:31 *151:40 0.000495884
*RES
1 *625:X *31:8 13.8536 
2 *31:8 *626:A 9.3 
3 *31:8 *31:23 16.2143 
4 *31:23 *31:31 20.6786 
5 *31:31 *627:B 37.9786 
6 *31:31 *636:B 13.8 
7 *31:23 *663:B 9.3 
*END

*D_NET *32 0.005801
*CONN
*I *683:B1 I *D sky130_fd_sc_hd__a2bb2o_2
*I *677:A2 I *D sky130_fd_sc_hd__a211o_2
*I *656:B1 I *D sky130_fd_sc_hd__a22o_2
*I *626:Y O *D sky130_fd_sc_hd__inv_2
*CAP
1 *683:B1 0.000358131
2 *677:A2 0.000438763
3 *656:B1 1.33038e-05
4 *626:Y 2.05056e-05
5 *32:16 0.00170871
6 *32:8 0.00163528
7 *656:B1 *176:35 2.06112e-05
8 *677:A2 *670:B 0
9 *677:A2 *677:B1 4.25809e-05
10 *677:A2 *677:C1 0
11 *677:A2 *738:A1 0
12 *677:A2 *740:A3 0.000140375
13 *677:A2 *96:10 0
14 *677:A2 *137:10 0.000543361
15 *677:A2 *176:35 0.000289341
16 *683:B1 *666:B2 0
17 *683:B1 *675:A1 9.60875e-05
18 *683:B1 *682:B1 0.000152409
19 *683:B1 *683:A2_N 1.02821e-05
20 *683:B1 *683:B2 7.43578e-06
21 *683:B1 *151:74 0.000115474
22 *683:B1 *176:14 5.10822e-05
23 *32:8 *180:56 3.67252e-05
24 *32:16 *151:74 2.22043e-05
25 *31:8 *32:8 9.83442e-05
*RES
1 *626:Y *32:8 14.7464 
2 *32:8 *32:16 9.23372 
3 *32:16 *656:B1 14.0768 
4 *32:16 *677:A2 25.6125 
5 *32:8 *683:B1 21.2464 
*END

*D_NET *33 0.000846756
*CONN
*I *628:C1 I *D sky130_fd_sc_hd__a221o_2
*I *627:Y O *D sky130_fd_sc_hd__nor2_2
*CAP
1 *628:C1 0.000191787
2 *627:Y 0.000191787
3 *628:C1 *619:B2 0
4 *628:C1 *628:B2 8.5662e-05
5 *628:C1 *632:A1 0.000147122
6 *628:C1 *707:A_N 5.71472e-05
7 *628:C1 *142:12 0.000173251
*RES
1 *627:Y *628:C1 32.5107 
*END

*D_NET *34 0.00101166
*CONN
*I *632:A1 I *D sky130_fd_sc_hd__o22a_2
*I *628:X O *D sky130_fd_sc_hd__a221o_2
*CAP
1 *632:A1 0.000381924
2 *628:X 0.000381924
3 *632:A1 *628:A1 2.59355e-05
4 *632:A1 *628:A2 2.66993e-05
5 *632:A1 *628:B2 8.43535e-06
6 *632:A1 *632:B1 0
7 *632:A1 *154:12 2.72887e-05
8 *632:A1 *154:23 1.23281e-05
9 *628:C1 *632:A1 0.000147122
*RES
1 *628:X *632:A1 32.9571 
*END

*D_NET *35 0.000393911
*CONN
*I *630:C1 I *D sky130_fd_sc_hd__a2111o_2
*I *629:X O *D sky130_fd_sc_hd__a2bb2o_2
*CAP
1 *630:C1 0.000153412
2 *629:X 0.000153412
3 *630:C1 *637:A1 1.28192e-05
4 *630:C1 *155:44 4.79842e-05
5 *630:C1 *166:68 2.62823e-05
*RES
1 *629:X *630:C1 30.1893 
*END

*D_NET *36 0.000336748
*CONN
*I *632:A2 I *D sky130_fd_sc_hd__o22a_2
*I *630:X O *D sky130_fd_sc_hd__a2111o_2
*CAP
1 *632:A2 7.79887e-05
2 *630:X 7.79887e-05
3 *632:A2 *632:B2 0.000138881
4 *632:A2 *142:25 4.18895e-05
*RES
1 *630:X *632:A2 20.3679 
*END

*D_NET *37 0.000511789
*CONN
*I *632:B1 I *D sky130_fd_sc_hd__o22a_2
*I *631:X O *D sky130_fd_sc_hd__xor2_2
*CAP
1 *632:B1 0.000180338
2 *631:X 0.000180338
3 *632:B1 *619:B2 0.000104292
4 *632:B1 *732:B 4.68201e-05
5 *632:A1 *632:B1 0
*RES
1 *631:X *632:B1 31.5107 
*END

*D_NET *38 0.000585417
*CONN
*I *640:A2 I *D sky130_fd_sc_hd__o22a_2
*I *633:Y O *D sky130_fd_sc_hd__xnor2_2
*CAP
1 *640:A2 8.81177e-05
2 *633:Y 8.81177e-05
3 *640:A2 *640:B2 5.62995e-05
4 *640:A2 *772:A 4.16984e-05
5 *640:A2 *108:8 0.000311183
*RES
1 *633:Y *640:A2 21.6 
*END

*D_NET *39 0.000754599
*CONN
*I *639:A2 I *D sky130_fd_sc_hd__a211o_2
*I *634:X O *D sky130_fd_sc_hd__o21a_2
*CAP
1 *639:A2 0.000259034
2 *634:X 0.000259034
3 *639:A2 *639:B1 4.1331e-06
4 *639:A2 *772:A 0
5 *639:A2 *108:12 0
6 *639:A2 *113:8 0.000232399
*RES
1 *634:X *639:A2 31.4214 
*END

*D_NET *40 0.000238127
*CONN
*I *637:C1 I *D sky130_fd_sc_hd__a221o_2
*I *635:Y O *D sky130_fd_sc_hd__nor2_2
*CAP
1 *637:C1 6.61403e-05
2 *635:Y 6.61403e-05
3 *637:C1 *637:B1 4.06782e-05
4 *637:C1 *110:26 5.80706e-06
5 *637:C1 *148:27 5.93614e-05
*RES
1 *635:Y *637:C1 29.2429 
*END

*D_NET *41 0.000540723
*CONN
*I *638:C1 I *D sky130_fd_sc_hd__a221o_2
*I *636:Y O *D sky130_fd_sc_hd__nor2_2
*CAP
1 *638:C1 9.9613e-05
2 *636:Y 9.9613e-05
3 *638:C1 *638:B2 7.50505e-05
4 *638:C1 *647:A1 9.60875e-05
5 *638:C1 *712:B 0.000121573
6 *638:C1 *111:8 4.87854e-05
7 *627:B *638:C1 0
*RES
1 *636:Y *638:C1 30.4929 
*END

*D_NET *42 0.00137443
*CONN
*I *640:B1 I *D sky130_fd_sc_hd__o22a_2
*I *637:X O *D sky130_fd_sc_hd__a221o_2
*CAP
1 *640:B1 0.000438208
2 *637:X 0.000438208
3 *640:B1 *638:A2 0.000162005
4 *640:B1 *109:22 0.000145753
5 *640:B1 *133:14 9.41642e-05
6 *627:B *640:B1 9.60939e-05
*RES
1 *637:X *640:B1 34.1893 
*END

*D_NET *43 0.00146579
*CONN
*I *639:B1 I *D sky130_fd_sc_hd__a211o_2
*I *638:X O *D sky130_fd_sc_hd__a221o_2
*CAP
1 *639:B1 0.000463716
2 *638:X 0.000463716
3 *639:B1 *639:C1 0
4 *639:B1 *640:A1 0
5 *639:B1 *641:B 0.000129515
6 *639:B1 *133:14 0.000404707
7 *639:A2 *639:B1 4.1331e-06
*RES
1 *638:X *639:B1 34.6 
*END

*D_NET *44 0.000542103
*CONN
*I *640:B2 I *D sky130_fd_sc_hd__o22a_2
*I *639:X O *D sky130_fd_sc_hd__a211o_2
*CAP
1 *640:B2 0.000184378
2 *639:X 0.000184378
3 *640:B2 *772:A 1.24368e-05
4 *640:B2 *108:8 0.000104611
5 *640:A2 *640:B2 5.62995e-05
*RES
1 *639:X *640:B2 22.4393 
*END

*D_NET *45 0.000751694
*CONN
*I *651:A2_N I *D sky130_fd_sc_hd__o2bb2a_2
*I *641:Y O *D sky130_fd_sc_hd__xnor2_2
*CAP
1 *651:A2_N 0.00024555
2 *641:Y 0.00024555
3 *651:A2_N *639:C1 0
4 *651:A2_N *641:A 3.18676e-05
5 *651:A2_N *130:17 0.000134029
6 *651:A2_N *130:21 6.74911e-05
7 *651:A2_N *176:54 2.72055e-05
*RES
1 *641:Y *651:A2_N 33.1179 
*END

*D_NET *46 0.00104938
*CONN
*I *650:A2 I *D sky130_fd_sc_hd__a31o_2
*I *642:X O *D sky130_fd_sc_hd__or2_2
*CAP
1 *650:A2 0.000183517
2 *642:X 0.000183517
3 *650:A2 *701:A_N 7.03768e-05
4 *650:A2 *703:A_N 0
5 *650:A2 *716:C1 5.33978e-05
6 *650:A2 *115:8 0.00040971
7 *650:A2 *183:12 0.000148863
*RES
1 *642:X *650:A2 33.4214 
*END

*D_NET *47 0.000628961
*CONN
*I *650:A3 I *D sky130_fd_sc_hd__a31o_2
*I *643:Y O *D sky130_fd_sc_hd__nand2_2
*CAP
1 *650:A3 8.01774e-05
2 *643:Y 8.01774e-05
3 *650:A3 *731:B 0.000146261
4 *650:A3 *773:A 5.33005e-05
5 *650:A3 *115:8 0.000195998
6 *650:A3 *130:17 1.97463e-05
7 *650:A3 *183:22 5.33005e-05
*RES
1 *643:Y *650:A3 30.6893 
*END

*D_NET *48 0.000440256
*CONN
*I *647:B2 I *D sky130_fd_sc_hd__a221o_2
*I *644:X O *D sky130_fd_sc_hd__or2_2
*CAP
1 *647:B2 0.00013053
2 *644:X 0.00013053
3 *647:B2 *644:B 5.28196e-05
4 *647:B2 *646:C 1.84776e-05
5 *647:B2 *647:A2 6.26774e-06
6 *647:B2 *647:B1 3.29297e-05
7 *647:B2 *53:16 5.49995e-05
8 *647:B2 *183:30 1.37018e-05
*RES
1 *644:X *647:B2 30.2116 
*END

*D_NET *49 0.000514338
*CONN
*I *647:C1 I *D sky130_fd_sc_hd__a221o_2
*I *645:Y O *D sky130_fd_sc_hd__nor2_2
*CAP
1 *647:C1 0.000106473
2 *645:Y 0.000106473
3 *647:C1 *647:A2 0.000182804
4 *647:C1 *183:30 0.000118588
*RES
1 *645:Y *647:C1 21.6357 
*END

*D_NET *50 0.00143751
*CONN
*I *649:C_N I *D sky130_fd_sc_hd__or3b_2
*I *646:X O *D sky130_fd_sc_hd__or3_2
*CAP
1 *649:C_N 0.000189299
2 *646:X 0.000189299
3 *649:C_N *628:A2 0.000125679
4 *649:C_N *646:B 1.00887e-05
5 *649:C_N *646:C 0.000397412
6 *649:C_N *649:A 0.00039885
7 *649:C_N *53:16 3.46801e-05
8 *649:C_N *148:23 9.22015e-05
*RES
1 *646:X *649:C_N 34.7071 
*END

*D_NET *51 0.00159721
*CONN
*I *651:B1 I *D sky130_fd_sc_hd__o2bb2a_2
*I *647:X O *D sky130_fd_sc_hd__a221o_2
*CAP
1 *651:B1 0.000421257
2 *647:X 0.000421257
3 *651:B1 *639:C1 5.23822e-05
4 *651:B1 *183:22 4.22609e-05
5 *651:B1 *183:26 0.000660052
*RES
1 *647:X *651:B1 27.3679 
*END

*D_NET *52 0.000166747
*CONN
*I *649:B I *D sky130_fd_sc_hd__or3b_2
*I *648:X O *D sky130_fd_sc_hd__a32o_2
*CAP
1 *649:B 4.39053e-05
2 *648:X 4.39053e-05
3 *649:B *149:12 7.89362e-05
*RES
1 *648:X *649:B 28.6357 
*END

*D_NET *53 0.0046319
*CONN
*I *650:B1 I *D sky130_fd_sc_hd__a31o_2
*I *649:X O *D sky130_fd_sc_hd__or3b_2
*CAP
1 *650:B1 0
2 *649:X 0.00154384
3 *53:16 0.00154384
4 *53:16 *644:B 5.50052e-05
5 *53:16 *646:C 7.36267e-05
6 *53:16 *650:A1 0.000100248
7 *53:16 *701:A_N 7.62184e-05
8 *53:16 *730:A 0.000554781
9 *53:16 *735:A1 0.000546036
10 *53:16 *130:6 4.25684e-05
11 *53:16 *158:18 6.05161e-06
12 *647:B2 *53:16 5.49995e-05
13 *649:C_N *53:16 3.46801e-05
*RES
1 *649:X *53:16 41.8714 
2 *53:16 *650:B1 9.3 
*END

*D_NET *54 0.000605996
*CONN
*I *651:B2 I *D sky130_fd_sc_hd__o2bb2a_2
*I *650:X O *D sky130_fd_sc_hd__a31o_2
*CAP
1 *651:B2 0.000178276
2 *650:X 0.000178276
3 *651:B2 *639:C1 5.4959e-05
4 *651:B2 *651:A1_N 4.55471e-05
5 *651:B2 *183:22 0.000148939
*RES
1 *650:X *651:B2 22.0107 
*END

*D_NET *55 0.000496254
*CONN
*I *653:B I *D sky130_fd_sc_hd__and3b_2
*I *652:Y O *D sky130_fd_sc_hd__nand2_2
*CAP
1 *653:B 8.50686e-05
2 *652:Y 8.50686e-05
3 *653:B *650:A1 0.000128161
4 *653:B *723:C_N 5.49995e-05
5 *653:B *122:10 0.000142957
*RES
1 *652:Y *653:B 30.1893 
*END

*D_NET *56 0.00331015
*CONN
*I *660:A1 I *D sky130_fd_sc_hd__o41a_2
*I *653:X O *D sky130_fd_sc_hd__and3b_2
*CAP
1 *660:A1 0.000594634
2 *653:X 0.000594634
3 *660:A1 *653:C 1.51371e-05
4 *660:A1 *719:A 5.85866e-05
5 *660:A1 *736:A 0.00044852
6 *660:A1 *736:B 5.52302e-05
7 *660:A1 *774:A 0.00115807
8 *660:A1 *119:63 4.18895e-05
9 *660:A1 *120:8 4.27437e-05
10 *660:A1 *184:59 0.000300705
*RES
1 *653:X *660:A1 35.6357 
*END

*D_NET *57 0.000291304
*CONN
*I *660:A2 I *D sky130_fd_sc_hd__o41a_2
*I *654:X O *D sky130_fd_sc_hd__and2b_2
*CAP
1 *660:A2 8.88258e-05
2 *654:X 8.88258e-05
3 *660:A2 *654:B 3.52867e-05
4 *660:A2 *660:A3 7.83659e-05
5 *660:A2 *184:59 0
*RES
1 *654:X *660:A2 29.1714 
*END

*D_NET *58 0.000968486
*CONN
*I *660:A3 I *D sky130_fd_sc_hd__o41a_2
*I *655:X O *D sky130_fd_sc_hd__a2bb2o_2
*CAP
1 *660:A3 0.000354637
2 *655:X 0.000354637
3 *660:A3 *654:B 7.39358e-05
4 *660:A3 *658:A 0
5 *660:A3 *659:B1 3.02892e-05
6 *660:A3 *660:B1 3.92854e-05
7 *660:A3 *184:59 3.73361e-05
8 *660:A2 *660:A3 7.83659e-05
*RES
1 *655:X *660:A3 33.1536 
*END

*D_NET *59 0.000570245
*CONN
*I *657:B1 I *D sky130_fd_sc_hd__a211o_2
*I *656:X O *D sky130_fd_sc_hd__a22o_2
*CAP
1 *657:B1 0.00019009
2 *656:X 0.00019009
3 *657:B1 *656:A1 2.51343e-06
4 *657:B1 *656:A2 3.14592e-05
5 *657:B1 *657:A1 0
6 *657:B1 *657:C1 0.000150618
7 *657:B1 *665:A1 5.47476e-06
8 *657:B1 *146:76 0
*RES
1 *656:X *657:B1 30.9036 
*END

*D_NET *60 0.000614459
*CONN
*I *660:A4 I *D sky130_fd_sc_hd__o41a_2
*I *657:X O *D sky130_fd_sc_hd__a211o_2
*CAP
1 *660:A4 0.000253611
2 *657:X 0.000253611
3 *660:A4 *657:A1 1.74352e-05
4 *660:A4 *657:A2 5.62995e-05
5 *660:A4 *660:B1 1.02504e-05
6 *660:A4 *663:A 2.32517e-05
7 *660:A4 *720:B 0
8 *660:A4 *146:76 0
*RES
1 *657:X *660:A4 31.4214 
*END

*D_NET *61 0.000262883
*CONN
*I *659:A2 I *D sky130_fd_sc_hd__a21o_2
*I *658:X O *D sky130_fd_sc_hd__or2_2
*CAP
1 *659:A2 6.86018e-05
2 *658:X 6.86018e-05
3 *659:A2 *134:21 0.000125679
*RES
1 *658:X *659:A2 29.2429 
*END

*D_NET *62 0.000676768
*CONN
*I *660:B1 I *D sky130_fd_sc_hd__o41a_2
*I *659:X O *D sky130_fd_sc_hd__a21o_2
*CAP
1 *660:B1 0.000263969
2 *659:X 0.000263969
3 *660:B1 *654:A_N 5.33334e-05
4 *660:B1 *659:B1 4.59602e-05
5 *660:B1 *720:B 0
6 *660:B1 *184:59 0
7 *660:A3 *660:B1 3.92854e-05
8 *660:A4 *660:B1 1.02504e-05
*RES
1 *659:X *660:B1 31.725 
*END

*D_NET *63 0.000340201
*CONN
*I *669:A2 I *D sky130_fd_sc_hd__a31o_2
*I *661:X O *D sky130_fd_sc_hd__or2_2
*CAP
1 *669:A2 0.000114373
2 *661:X 0.000114373
3 *669:A2 *661:A 8.09947e-05
4 *669:A2 *669:A1 3.046e-05
*RES
1 *661:X *669:A2 20.7964 
*END

*D_NET *64 0.000516365
*CONN
*I *669:A3 I *D sky130_fd_sc_hd__a31o_2
*I *662:Y O *D sky130_fd_sc_hd__nand2_2
*CAP
1 *669:A3 0.00010526
2 *662:Y 0.00010526
3 *669:A3 *662:A 5.71472e-05
4 *669:A3 *669:A1 9.6732e-05
5 *669:A3 *99:12 1.31516e-05
6 *669:A3 *99:14 8.359e-05
7 *669:A3 *185:16 5.52238e-05
*RES
1 *662:Y *669:A3 30.6893 
*END

*D_NET *65 0.000480792
*CONN
*I *665:B1 I *D sky130_fd_sc_hd__a211o_2
*I *663:Y O *D sky130_fd_sc_hd__nor2_2
*CAP
1 *665:B1 0.000146732
2 *663:Y 0.000146732
3 *665:B1 *657:A2 0.000108728
4 *665:B1 *665:A2 1.97488e-05
5 *665:B1 *665:C1 9.54798e-06
6 *665:B1 *666:B2 0
7 *665:B1 *146:76 0
8 *665:B1 *149:84 0
9 *31:23 *665:B1 3.18676e-05
10 *31:31 *665:B1 1.74352e-05
*RES
1 *663:Y *665:B1 30.7964 
*END

*D_NET *66 0.000222205
*CONN
*I *665:C1 I *D sky130_fd_sc_hd__a211o_2
*I *664:X O *D sky130_fd_sc_hd__a2bb2o_2
*CAP
1 *665:C1 8.66118e-05
2 *664:X 8.66118e-05
3 *665:C1 *666:A1 0
4 *665:C1 *146:76 3.94338e-05
5 *665:C1 *149:84 0
6 *665:B1 *665:C1 9.54798e-06
*RES
1 *664:X *665:C1 29.2429 
*END

*D_NET *67 0.000593389
*CONN
*I *666:C1 I *D sky130_fd_sc_hd__a221o_2
*I *665:X O *D sky130_fd_sc_hd__a211o_2
*CAP
1 *666:C1 0.000237556
2 *665:X 0.000237556
3 *666:C1 *151:84 3.27526e-05
4 *666:C1 *180:56 8.25843e-06
5 *31:23 *666:C1 7.72663e-05
*RES
1 *665:X *666:C1 31.0107 
*END

*D_NET *68 0.00347027
*CONN
*I *668:B1 I *D sky130_fd_sc_hd__a41o_2
*I *666:X O *D sky130_fd_sc_hd__a221o_2
*CAP
1 *668:B1 0.000993446
2 *666:X 0.000993446
3 *668:B1 *662:A 0.000184745
4 *668:B1 *662:B 0.000186669
5 *668:B1 *666:A1 3.57366e-05
6 *668:B1 *675:A2 0.000144773
7 *668:B1 *675:B2 3.66478e-05
8 *668:B1 *738:A2 8.86512e-05
9 *668:B1 *738:C1 0.00018372
10 *668:B1 *185:16 0.000557053
11 *668:B1 *185:22 6.53837e-05
*RES
1 *666:X *668:B1 37.9393 
*END

*D_NET *69 0.000992944
*CONN
*I *668:A4 I *D sky130_fd_sc_hd__a41o_2
*I *667:X O *D sky130_fd_sc_hd__a211o_2
*CAP
1 *668:A4 0.00019727
2 *667:X 0.00019727
3 *668:A4 *667:A1 0.000103267
4 *668:A4 *98:10 4.75715e-05
5 *668:A4 *123:12 0.000136951
6 *668:A4 *123:25 4.88637e-05
7 *668:A4 *179:60 3.34295e-05
8 *668:A4 *179:62 0.00017309
9 *668:A4 *184:23 5.52302e-05
*RES
1 *667:X *668:A4 32.8679 
*END

*D_NET *70 0.000799954
*CONN
*I *669:B1 I *D sky130_fd_sc_hd__a31o_2
*I *668:X O *D sky130_fd_sc_hd__a41o_2
*CAP
1 *669:B1 0.000249186
2 *668:X 0.000249186
3 *669:B1 *661:B 0
4 *669:B1 *669:A1 7.50697e-05
5 *669:B1 *185:16 0.000226513
*RES
1 *668:X *669:B1 31.725 
*END

*D_NET *71 0.000642088
*CONN
*I *678:A2 I *D sky130_fd_sc_hd__o22a_2
*I *670:Y O *D sky130_fd_sc_hd__xnor2_2
*CAP
1 *678:A2 0.000257725
2 *670:Y 0.000257725
3 *678:A2 *672:B1 0
4 *678:A2 *678:B1 0.000126639
5 *678:A2 *94:35 0
6 *678:A2 *94:52 0
7 *678:A2 *142:75 0
*RES
1 *670:Y *678:A2 31.4214 
*END

*D_NET *72 0.000432787
*CONN
*I *672:B1 I *D sky130_fd_sc_hd__a41oi_2
*I *671:Y O *D sky130_fd_sc_hd__nand2_2
*CAP
1 *672:B1 0.00013213
2 *671:Y 0.00013213
3 *672:B1 *671:B 3.69047e-06
4 *672:B1 *727:B1 1.02504e-05
5 *672:B1 *94:52 0.000148841
6 *672:B1 *142:75 0
7 *672:B1 *179:60 5.74499e-06
8 *678:A2 *672:B1 0
*RES
1 *671:Y *672:B1 30.0821 
*END

*D_NET *73 0.000752109
*CONN
*I *678:B1 I *D sky130_fd_sc_hd__o22a_2
*I *672:Y O *D sky130_fd_sc_hd__a41oi_2
*CAP
1 *678:B1 0.000216449
2 *672:Y 0.000216449
3 *678:B1 *678:B2 3.93247e-05
4 *678:B1 *94:35 9.80173e-05
5 *678:B1 *142:75 5.52302e-05
6 *678:A2 *678:B1 0.000126639
*RES
1 *672:Y *678:B1 23.6714 
*END

*D_NET *74 0.000861216
*CONN
*I *674:B1 I *D sky130_fd_sc_hd__o21ai_2
*I *673:Y O *D sky130_fd_sc_hd__nand2b_2
*CAP
1 *674:B1 0.00025863
2 *673:Y 0.00025863
3 *674:B1 *673:B 4.98055e-06
4 *674:B1 *676:A1 0.000148911
5 *674:B1 *676:A2 1.15281e-05
6 *674:B1 *676:B1 7.61932e-05
7 *674:B1 *679:B 2.39779e-05
8 *674:B1 *93:12 0
9 *674:B1 *142:75 7.83659e-05
10 *674:B1 *186:23 0
*RES
1 *673:Y *674:B1 33.1357 
*END

*D_NET *75 0.000399018
*CONN
*I *676:B1 I *D sky130_fd_sc_hd__a211o_2
*I *674:Y O *D sky130_fd_sc_hd__o21ai_2
*CAP
1 *676:B1 6.18203e-05
2 *674:Y 6.18203e-05
3 *676:B1 *674:A2 0
4 *676:B1 *676:A2 1.5471e-05
5 *676:B1 *146:89 0.000183713
6 *674:B1 *676:B1 7.61932e-05
*RES
1 *674:Y *676:B1 20.7964 
*END

*D_NET *76 0.000423155
*CONN
*I *676:C1 I *D sky130_fd_sc_hd__a211o_2
*I *675:X O *D sky130_fd_sc_hd__a22o_2
*CAP
1 *676:C1 0.000159957
2 *675:X 0.000159957
3 *676:C1 *664:B2 0
4 *676:C1 *676:A1 4.1331e-06
5 *676:C1 *146:89 9.91086e-05
6 *676:C1 *186:23 0
7 *676:C1 *186:29 0
*RES
1 *675:X *676:C1 30.0821 
*END

*D_NET *77 0.000611726
*CONN
*I *677:B1 I *D sky130_fd_sc_hd__a211o_2
*I *676:X O *D sky130_fd_sc_hd__a211o_2
*CAP
1 *677:B1 0.000150792
2 *676:X 0.000150792
3 *677:B1 *677:C1 0.000125731
4 *677:B1 *97:31 0.00014183
5 *677:A2 *677:B1 4.25809e-05
*RES
1 *676:X *677:B1 30.6 
*END

*D_NET *78 0.000541984
*CONN
*I *678:B2 I *D sky130_fd_sc_hd__o22a_2
*I *677:X O *D sky130_fd_sc_hd__a211o_2
*CAP
1 *678:B2 0.000190306
2 *677:X 0.000190306
3 *678:B2 *94:35 0.000122047
4 *678:B1 *678:B2 3.93247e-05
*RES
1 *677:X *678:B2 22.4393 
*END

*D_NET *79 0.00024222
*CONN
*I *686:A2 I *D sky130_fd_sc_hd__o22a_2
*I *679:X O *D sky130_fd_sc_hd__xor2_2
*CAP
1 *686:A2 4.46104e-05
2 *679:X 4.46104e-05
3 *686:A2 *686:B2 5.12608e-05
4 *686:A2 *179:45 0.000101738
*RES
1 *679:X *686:A2 19.975 
*END

*D_NET *80 0.000664467
*CONN
*I *685:A3 I *D sky130_fd_sc_hd__a31o_2
*I *680:Y O *D sky130_fd_sc_hd__nand3_2
*CAP
1 *685:A3 0.000169502
2 *680:Y 0.000169502
3 *685:A3 *680:A 4.08637e-05
4 *685:A3 *91:17 0.000274288
5 *685:A3 *142:75 1.03105e-05
*RES
1 *680:Y *685:A3 22.0107 
*END

*D_NET *81 0.000370773
*CONN
*I *684:B1 I *D sky130_fd_sc_hd__a211o_2
*I *681:X O *D sky130_fd_sc_hd__and2b_2
*CAP
1 *684:B1 0.000178366
2 *681:X 0.000178366
3 *684:B1 *90:23 0
4 *684:B1 *142:55 0
5 *684:B1 *154:81 1.40415e-05
*RES
1 *681:X *684:B1 29.7786 
*END

*D_NET *82 0.00136206
*CONN
*I *686:B1 I *D sky130_fd_sc_hd__o22a_2
*I *682:X O *D sky130_fd_sc_hd__a21o_2
*CAP
1 *686:B1 0.000356658
2 *682:X 0.000356658
3 *686:B1 *676:A2 7.6644e-05
4 *686:B1 *679:B 0.000185964
5 *686:B1 *683:B2 4.00025e-05
6 *686:B1 *729:A2 4.69774e-05
7 *686:B1 *126:39 0.000192426
8 *686:B1 *127:12 5.79582e-06
9 *686:B1 *179:45 0.000100931
*RES
1 *682:X *686:B1 36.1714 
*END

*D_NET *83 0.000417011
*CONN
*I *684:C1 I *D sky130_fd_sc_hd__a211o_2
*I *683:X O *D sky130_fd_sc_hd__a2bb2o_2
*CAP
1 *684:C1 5.68228e-05
2 *683:X 5.68228e-05
3 *684:C1 *683:A1_N 0
4 *684:C1 *684:A1 3.99614e-06
5 *684:C1 *684:A2 0.000224322
6 *684:C1 *187:47 7.50473e-05
*RES
1 *683:X *684:C1 21.1 
*END

*D_NET *84 0.000490483
*CONN
*I *685:B1 I *D sky130_fd_sc_hd__a31o_2
*I *684:X O *D sky130_fd_sc_hd__a211o_2
*CAP
1 *685:B1 0.000180694
2 *684:X 0.000180694
3 *685:B1 *685:A1 3.51442e-05
4 *685:B1 *685:A2 3.38136e-05
5 *685:B1 *741:A2 1.02504e-05
6 *685:B1 *741:B1 0
7 *685:B1 *90:23 0
8 *685:B1 *91:8 4.98872e-05
9 *685:B1 *91:25 0
*RES
1 *684:X *685:B1 31.3679 
*END

*D_NET *85 0.000947684
*CONN
*I *686:B2 I *D sky130_fd_sc_hd__o22a_2
*I *685:X O *D sky130_fd_sc_hd__a31o_2
*CAP
1 *686:B2 0.000228989
2 *685:X 0.000228989
3 *686:B2 *679:B 0.000316562
4 *686:B2 *685:A1 0
5 *686:B2 *686:A1 0
6 *686:B2 *91:17 3.18676e-05
7 *686:B2 *142:55 0
8 *686:B2 *179:10 0
9 *686:B2 *179:45 9.00147e-05
10 *686:A2 *686:B2 5.12608e-05
*RES
1 *685:X *686:B2 33.3857 
*END

*D_NET *86 0.000613201
*CONN
*I *667:A1 I *D sky130_fd_sc_hd__a211o_2
*I *687:Y O *D sky130_fd_sc_hd__inv_2
*CAP
1 *667:A1 0.000130248
2 *687:Y 0.000130248
3 *667:A1 *667:B1 1.97695e-05
4 *667:A1 *98:10 0.000103267
5 *667:A1 *184:23 9.60939e-05
6 *667:A1 *184:35 3.03071e-05
7 *668:A4 *667:A1 0.000103267
*RES
1 *687:Y *667:A1 30.725 
*END

*D_NET *87 0.000533561
*CONN
*I *744:A1 I *D sky130_fd_sc_hd__a32o_2
*I *688:Y O *D sky130_fd_sc_hd__nand2b_2
*CAP
1 *744:A1 0.000106334
2 *688:Y 0.000106334
3 *744:A1 *688:A_N 5.30637e-06
4 *744:A1 *778:A 7.22594e-05
5 *744:A1 *88:10 0.000128154
6 *744:A1 *162:8 0.000112106
7 *744:A1 *187:34 3.06878e-06
*RES
1 *688:Y *744:A1 30.6893 
*END

*D_NET *88 0.0119776
*CONN
*I *634:B1 I *D sky130_fd_sc_hd__o21a_2
*I *622:B1 I *D sky130_fd_sc_hd__o21ai_2
*I *778:A I *D sky130_fd_sc_hd__clkbuf_2
*I *744:A2 I *D sky130_fd_sc_hd__a32o_2
*I *689:Y O *D sky130_fd_sc_hd__nor3b_2
*CAP
1 *634:B1 0
2 *622:B1 0
3 *778:A 0.000317907
4 *744:A2 0
5 *689:Y 0
6 *88:55 0.00211099
7 *88:36 0.00299528
8 *88:10 0.000748178
9 *88:4 0.00131457
10 *778:A *679:A 0
11 *778:A *692:A 9.10431e-06
12 *778:A *741:B1 0
13 *778:A *744:B1 8.16036e-05
14 *778:A *162:8 2.37761e-05
15 *88:10 *690:A 6.8646e-06
16 *88:10 *690:B 0.000196269
17 *88:10 *692:A 0.000140311
18 *88:10 *744:B2 0
19 *88:10 *745:A 0
20 *88:10 *141:8 0
21 *88:10 *141:27 0
22 *88:10 *162:8 2.78822e-05
23 *88:10 *162:10 1.69115e-05
24 *88:10 *165:29 0.00014183
25 *88:10 *165:40 1.33343e-05
26 *88:10 *181:10 7.6644e-05
27 *88:10 *187:10 0.000126439
28 *88:36 *613:A1 0
29 *88:36 *614:B1 0
30 *88:36 *619:B2 0.000274094
31 *88:36 *620:C 0.000162937
32 *88:36 *742:B 0
33 *88:36 *745:A 6.19181e-05
34 *88:36 *746:A 0
35 *88:36 *770:A 0.000162946
36 *88:36 *146:8 0.000192635
37 *88:36 *163:10 0
38 *88:36 *165:10 0.00010326
39 *88:36 *165:40 0.000126572
40 *88:36 *182:8 0
41 *88:36 *188:40 0.000263864
42 *88:55 *619:B2 9.73258e-05
43 *88:55 *623:B1 7.57647e-05
44 *88:55 *627:A 0.000107343
45 *88:55 *704:B 1.46264e-05
46 *88:55 *707:A_N 0.000137983
47 *88:55 *710:B 0
48 *88:55 *714:B 0.000259934
49 *88:55 *734:A1 9.61455e-05
50 *88:55 *103:10 1.36607e-05
51 *88:55 *104:8 0
52 *88:55 *105:10 6.09476e-05
53 *88:55 *110:26 2.65105e-05
54 *88:55 *113:8 0.000202891
55 *88:55 *156:22 0
56 *88:55 *166:12 1.19309e-05
57 *88:55 *166:23 0.000227539
58 *88:55 *166:32 0.000214198
59 *88:55 *177:14 0.000534229
60 *88:55 *178:27 0
61 CARRY *778:A 0
62 *744:A1 *778:A 7.22594e-05
63 *744:A1 *88:10 0.000128154
*RES
1 *689:Y *88:4 9.3 
2 *88:4 *88:10 14.7857 
3 *88:10 *744:A2 13.8 
4 *88:10 *778:A 20.4429 
5 *88:4 *88:36 30.5179 
6 *88:36 *622:B1 9.3 
7 *88:36 *88:55 42.2857 
8 *88:55 *634:B1 9.3 
*END

*D_NET *89 0.00242889
*CONN
*I *681:A_N I *D sky130_fd_sc_hd__and2b_2
*I *692:A I *D sky130_fd_sc_hd__nor2_2
*I *690:Y O *D sky130_fd_sc_hd__nor2_2
*CAP
1 *681:A_N 8.17109e-05
2 *692:A 0.000194267
3 *690:Y 0.000243163
4 *89:12 0.000519141
5 *681:A_N *90:10 1.92905e-05
6 *681:A_N *163:10 0.000262877
7 *692:A *744:B1 9.25014e-06
8 *692:A *90:10 0.000100831
9 *692:A *90:23 0.000241665
10 *89:12 *691:A 5.52302e-05
11 *89:12 *691:B 5.33005e-05
12 *89:12 *744:B2 0.000153047
13 *89:12 *90:10 1.92789e-05
14 *89:12 *163:10 0.000268403
15 *755:A *89:12 5.80217e-05
16 *778:A *692:A 9.10431e-06
17 *88:10 *692:A 0.000140311
*RES
1 *690:Y *89:12 24.4786 
2 *89:12 *692:A 23.5857 
3 *89:12 *681:A_N 11.8893 
*END

*D_NET *90 0.00189817
*CONN
*I *741:B1 I *D sky130_fd_sc_hd__a21o_2
*I *692:B I *D sky130_fd_sc_hd__nor2_2
*I *684:A1 I *D sky130_fd_sc_hd__a211o_2
*I *691:X O *D sky130_fd_sc_hd__and2_2
*CAP
1 *741:B1 7.04195e-05
2 *692:B 2.52056e-05
3 *684:A1 0.000109267
4 *691:X 0.000146243
5 *90:23 0.000214547
6 *90:10 0.000374432
7 *684:A1 *684:A2 4.22908e-05
8 *684:A1 *187:47 0.00032853
9 *692:B *744:A3 5.52302e-05
10 *741:B1 *744:B1 7.71417e-05
11 *741:B1 *91:8 6.97972e-05
12 *681:A_N *90:10 1.92905e-05
13 *684:B1 *90:23 0
14 *684:C1 *684:A1 3.99614e-06
15 *685:B1 *741:B1 0
16 *685:B1 *90:23 0
17 *692:A *90:10 0.000100831
18 *692:A *90:23 0.000241665
19 *778:A *741:B1 0
20 *89:12 *90:10 1.92789e-05
*RES
1 *691:X *90:10 16.0857 
2 *90:10 *684:A1 17.2286 
3 *90:10 *90:23 3.16071 
4 *90:23 *692:B 14.3357 
5 *90:23 *741:B1 16.05 
*END

*D_NET *91 0.00299885
*CONN
*I *679:A I *D sky130_fd_sc_hd__xor2_2
*I *680:A I *D sky130_fd_sc_hd__nand3_2
*I *683:B2 I *D sky130_fd_sc_hd__a2bb2o_2
*I *729:B1 I *D sky130_fd_sc_hd__a21o_2
*I *741:A1 I *D sky130_fd_sc_hd__a21o_2
*I *692:Y O *D sky130_fd_sc_hd__nor2_2
*CAP
1 *679:A 0.00013102
2 *680:A 2.56892e-05
3 *683:B2 0.000267216
4 *729:B1 0
5 *741:A1 0
6 *692:Y 4.44306e-05
7 *91:25 0.000449736
8 *91:17 0.000450915
9 *91:10 0.000242705
10 *91:8 0.000175451
11 *679:A *741:A2 0.000184
12 *679:A *179:10 7.30656e-05
13 *680:A *142:75 3.69047e-06
14 *683:B2 *675:A1 1.64616e-05
15 *683:B2 *676:A2 7.83659e-05
16 *683:B2 *683:A2_N 5.49489e-05
17 *91:8 *741:A2 3.34295e-05
18 *91:17 *685:A1 2.89114e-05
19 *91:25 *685:A1 0
20 *91:25 *685:A2 0
21 *91:25 *128:6 5.33005e-05
22 *91:25 *142:55 0.000171375
23 *683:B1 *683:B2 7.43578e-06
24 *685:A3 *680:A 4.08637e-05
25 *685:A3 *91:17 0.000274288
26 *685:B1 *91:8 4.98872e-05
27 *685:B1 *91:25 0
28 *686:B1 *683:B2 4.00025e-05
29 *686:B2 *91:17 3.18676e-05
30 *741:B1 *91:8 6.97972e-05
31 *778:A *679:A 0
*RES
1 *692:Y *91:8 15.4429 
2 *91:8 *91:10 4.5 
3 *91:10 *741:A1 9.3 
4 *91:10 *91:17 5.05357 
5 *91:17 *91:25 12.6071 
6 *91:25 *729:B1 9.3 
7 *91:25 *683:B2 23.1571 
8 *91:17 *680:A 9.83571 
9 *91:8 *679:A 17.1929 
*END

*D_NET *92 0.0010818
*CONN
*I *695:A I *D sky130_fd_sc_hd__nor2_2
*I *673:A_N I *D sky130_fd_sc_hd__nand2b_2
*I *693:Y O *D sky130_fd_sc_hd__nor2_2
*CAP
1 *695:A 0
2 *673:A_N 0.00012571
3 *693:Y 3.34312e-05
4 *92:6 0.000159141
5 *673:A_N *679:B 0.000230482
6 *673:A_N *93:12 0.000150625
7 *673:A_N *142:75 0
8 *673:A_N *179:45 0.000126639
9 *673:A_N *186:10 1.02504e-05
10 *673:A_N *186:12 0.000220455
11 *673:A_N *186:23 9.25014e-06
12 *92:6 *142:75 1.58163e-05
*RES
1 *693:Y *92:6 9.83571 
2 *92:6 *673:A_N 23.3357 
3 *92:6 *695:A 9.3 
*END

*D_NET *93 0.00116622
*CONN
*I *676:A1 I *D sky130_fd_sc_hd__a211o_2
*I *740:B1 I *D sky130_fd_sc_hd__a31o_2
*I *695:B I *D sky130_fd_sc_hd__nor2_2
*I *694:X O *D sky130_fd_sc_hd__and2_2
*CAP
1 *676:A1 9.93207e-05
2 *740:B1 0
3 *695:B 0
4 *694:X 0.0001092
5 *93:19 0.000129296
6 *93:12 0.000139176
7 *676:A1 *664:B2 6.0038e-05
8 *676:A1 *673:B 2.49484e-05
9 *676:A1 *740:A1 4.13496e-05
10 *676:A1 *740:A2 6.81083e-05
11 *676:A1 *94:20 4.87854e-05
12 *676:A1 *186:23 0
13 *93:12 *142:75 1.92905e-05
14 *93:19 *740:A1 5.62995e-05
15 *93:19 *94:20 3.18676e-05
16 *93:19 *142:75 3.48705e-05
17 *673:A_N *93:12 0.000150625
18 *674:B1 *676:A1 0.000148911
19 *674:B1 *93:12 0
20 *676:C1 *676:A1 4.1331e-06
*RES
1 *694:X *93:12 20.7821 
2 *93:12 *695:B 9.3 
3 *93:12 *93:19 1.35714 
4 *93:19 *740:B1 9.3 
5 *93:19 *676:A1 21.4964 
*END

*D_NET *94 0.0040962
*CONN
*I *672:A1 I *D sky130_fd_sc_hd__a41oi_2
*I *727:B1 I *D sky130_fd_sc_hd__a31o_2
*I *670:A I *D sky130_fd_sc_hd__xnor2_2
*I *677:A1 I *D sky130_fd_sc_hd__a211o_2
*I *740:A1 I *D sky130_fd_sc_hd__a31o_2
*I *695:Y O *D sky130_fd_sc_hd__nor2_2
*CAP
1 *672:A1 3.72704e-05
2 *727:B1 8.01659e-05
3 *670:A 0
4 *677:A1 3.82418e-05
5 *740:A1 0.000133348
6 *695:Y 0.000377626
7 *94:52 0.000470945
8 *94:35 0.000688669
9 *94:20 0.00061768
10 *727:B1 *672:A2 6.74911e-05
11 *727:B1 *123:25 1.00375e-05
12 *94:20 *679:B 0.000139907
13 *94:20 *740:A3 5.91336e-05
14 *94:20 *142:75 0.00014183
15 *94:35 *670:B 0.000150632
16 *94:35 *740:A3 2.60984e-05
17 *94:35 *776:A 0
18 *94:35 *142:75 0.000126446
19 *94:52 *672:A2 4.46186e-06
20 *94:52 *126:12 0
21 *94:52 *142:75 2.59355e-05
22 *94:52 *179:45 0.000299015
23 *94:52 *179:60 4.38128e-05
24 *672:B1 *727:B1 1.02504e-05
25 *672:B1 *94:52 0.000148841
26 *676:A1 *740:A1 4.13496e-05
27 *676:A1 *94:20 4.87854e-05
28 *678:A2 *94:35 0
29 *678:A2 *94:52 0
30 *678:B1 *94:35 9.80173e-05
31 *678:B2 *94:35 0.000122047
32 *93:19 *740:A1 5.62995e-05
33 *93:19 *94:20 3.18676e-05
*RES
1 *695:Y *740:A1 20.3679 
2 *695:Y *94:20 14.3714 
3 *94:20 *677:A1 10.0321 
4 *94:20 *94:35 16.3036 
5 *94:35 *670:A 9.3 
6 *94:35 *94:52 12.7857 
7 *94:52 *727:B1 15.7464 
8 *94:52 *672:A1 14.3357 
*END

*D_NET *95 0.00137968
*CONN
*I *699:A I *D sky130_fd_sc_hd__and2_2
*I *697:A I *D sky130_fd_sc_hd__inv_2
*I *700:A I *D sky130_fd_sc_hd__nand2_2
*I *696:Y O *D sky130_fd_sc_hd__nand2_2
*CAP
1 *699:A 2.63541e-05
2 *697:A 0
3 *700:A 3.45842e-05
4 *696:Y 0.000257479
5 *95:29 0.000106042
6 *95:16 0.000371751
7 *699:A *775:A 5.33005e-05
8 *700:A *97:8 9.71197e-05
9 *700:A *99:12 2.89114e-05
10 *95:16 *698:A 8.20918e-05
11 *95:16 *97:8 5.33005e-05
12 *95:16 *99:12 5.7661e-06
13 *95:16 *160:14 0
14 *95:29 *122:29 0.000173804
15 *95:29 *123:25 8.91726e-05
*RES
1 *696:Y *95:16 13.8357 
2 *95:16 *700:A 10.2464 
3 *95:16 *95:29 11.25 
4 *95:29 *697:A 9.3 
5 *95:29 *699:A 9.83571 
*END

*D_NET *96 0.00428203
*CONN
*I *738:B1 I *D sky130_fd_sc_hd__a211o_2
*I *665:A1 I *D sky130_fd_sc_hd__a211o_2
*I *697:Y O *D sky130_fd_sc_hd__inv_2
*CAP
1 *738:B1 0
2 *665:A1 0.000824116
3 *697:Y 0.000792545
4 *96:10 0.00161666
5 *665:A1 *656:A1 0.000356028
6 *665:A1 *656:A2 0.000297341
7 *665:A1 *738:A1 6.42338e-05
8 *665:A1 *738:A2 6.42338e-05
9 *96:10 *661:A 0.000210742
10 *96:10 *661:B 0
11 *96:10 *738:A2 1.76039e-05
12 *96:10 *775:A 3.30526e-05
13 *96:10 *137:10 0
14 *657:B1 *665:A1 5.47476e-06
15 *677:A2 *96:10 0
*RES
1 *697:Y *96:10 24.0857 
2 *96:10 *665:A1 26.1571 
3 *96:10 *738:B1 13.8 
*END

*D_NET *97 0.00473596
*CONN
*I *699:B I *D sky130_fd_sc_hd__and2_2
*I *700:B I *D sky130_fd_sc_hd__nand2_2
*I *740:A2 I *D sky130_fd_sc_hd__a31o_2
*I *664:B2 I *D sky130_fd_sc_hd__a2bb2o_2
*I *739:A I *D sky130_fd_sc_hd__nand2_2
*I *698:X O *D sky130_fd_sc_hd__or2_4
*CAP
1 *699:B 4.87364e-05
2 *700:B 0
3 *740:A2 2.60885e-05
4 *664:B2 0.000259871
5 *739:A 0
6 *698:X 0.000183021
7 *97:31 0.000690418
8 *97:18 0.00097127
9 *97:8 0.000701096
10 *664:B2 *664:B1 0.000150611
11 *664:B2 *673:B 0.000482622
12 *664:B2 *146:89 0.000188778
13 *699:B *179:60 0.000127446
14 *699:B *185:59 4.48206e-05
15 *740:A2 *673:B 8.00806e-05
16 *97:8 *99:12 2.95726e-05
17 *97:18 *670:B 3.18676e-05
18 *97:18 *123:25 0.000106542
19 *97:31 *676:A2 6.05161e-06
20 *97:31 *739:B 0.000186669
21 *676:A1 *664:B2 6.0038e-05
22 *676:A1 *740:A2 6.81083e-05
23 *676:C1 *664:B2 0
24 *677:B1 *97:31 0.00014183
25 *700:A *97:8 9.71197e-05
26 *95:16 *97:8 5.33005e-05
*RES
1 *698:X *97:8 11.9071 
2 *97:8 *97:18 19.0893 
3 *97:18 *739:A 9.3 
4 *97:18 *97:31 11.6429 
5 *97:31 *664:B2 21.8179 
6 *97:31 *740:A2 14.8357 
7 *97:8 *700:B 9.3 
8 *698:X *699:B 29.2429 
*END

*D_NET *98 0.00128297
*CONN
*I *724:B I *D sky130_fd_sc_hd__or3b_2
*I *722:A I *D sky130_fd_sc_hd__or2_2
*I *699:X O *D sky130_fd_sc_hd__and2_2
*CAP
1 *724:B 0
2 *722:A 0.000150828
3 *699:X 0.000197539
4 *98:10 0.000348367
5 *722:A *723:B 4.47421e-05
6 *722:A *159:18 4.53557e-05
7 *98:10 *687:A 0.000128941
8 *98:10 *123:12 6.8646e-06
9 *98:10 *159:12 4.15914e-05
10 *98:10 *179:60 4.66189e-05
11 *98:10 *179:62 4.29179e-05
12 *98:10 *185:59 7.83659e-05
13 *667:A1 *98:10 0.000103267
14 *668:A4 *98:10 4.75715e-05
*RES
1 *699:X *98:10 24.1929 
2 *98:10 *722:A 12.3536 
3 *98:10 *724:B 9.3 
*END

*D_NET *99 0.00578836
*CONN
*I *661:A I *D sky130_fd_sc_hd__or2_2
*I *662:A I *D sky130_fd_sc_hd__nand2_2
*I *667:B1 I *D sky130_fd_sc_hd__a211o_2
*I *663:A I *D sky130_fd_sc_hd__nor2_2
*I *700:Y O *D sky130_fd_sc_hd__nand2_2
*CAP
1 *661:A 0.000162653
2 *662:A 3.66885e-05
3 *667:B1 0.000102525
4 *663:A 0.000928709
5 *700:Y 0.000214811
6 *99:16 0.00116467
7 *99:14 0.000271828
8 *99:12 0.000479164
9 *661:A *669:A1 3.046e-05
10 *661:A *775:A 6.05161e-06
11 *662:A *185:16 6.73733e-05
12 *663:A *657:A1 0.000274294
13 *663:A *657:A2 0.000164828
14 *663:A *667:C1 1.41029e-05
15 *663:A *669:A1 0
16 *663:A *720:A 0.00048939
17 *663:A *122:10 0
18 *663:A *176:54 0
19 *663:A *184:35 0.000417267
20 *667:B1 *184:35 4.87953e-05
21 *99:12 *123:25 7.60306e-05
22 *99:14 *669:A1 0
23 *99:14 *122:29 0
24 *99:14 *123:25 7.60306e-05
25 *99:16 *669:A1 0
26 *99:16 *122:10 0
27 *660:A4 *663:A 2.32517e-05
28 *667:A1 *667:B1 1.97695e-05
29 *668:B1 *662:A 0.000184745
30 *669:A2 *661:A 8.09947e-05
31 *669:A3 *662:A 5.71472e-05
32 *669:A3 *99:12 1.31516e-05
33 *669:A3 *99:14 8.359e-05
34 *700:A *99:12 2.89114e-05
35 *31:31 *663:A 2.5045e-05
36 *95:16 *99:12 5.7661e-06
37 *96:10 *661:A 0.000210742
38 *97:8 *99:12 2.95726e-05
*RES
1 *700:Y *99:12 17.5321 
2 *99:12 *99:14 2.55357 
3 *99:14 *99:16 1.94643 
4 *99:16 *663:A 32.8179 
5 *99:16 *667:B1 15.5857 
6 *99:14 *662:A 15.5679 
7 *99:12 *661:A 18.05 
*END

*D_NET *100 0.000376037
*CONN
*I *702:A I *D sky130_fd_sc_hd__inv_2
*I *717:A I *D sky130_fd_sc_hd__nand2_2
*I *701:Y O *D sky130_fd_sc_hd__nand2b_2
*CAP
1 *702:A 0
2 *717:A 2.65443e-05
3 *701:Y 9.35331e-05
4 *100:10 0.000120077
5 *717:A *723:A 5.23735e-05
6 *717:A *731:A 3.46801e-05
7 *100:10 *158:18 4.88284e-05
*RES
1 *701:Y *100:10 20.2464 
2 *100:10 *717:A 10.2464 
3 *100:10 *702:A 9.3 
*END

*D_NET *101 0.00141577
*CONN
*I *723:A I *D sky130_fd_sc_hd__or3b_2
*I *731:A I *D sky130_fd_sc_hd__nor2_2
*I *702:Y O *D sky130_fd_sc_hd__inv_2
*CAP
1 *723:A 0.000176072
2 *731:A 0.000287701
3 *702:Y 0.000463772
4 *723:A *650:A1 5.71821e-05
5 *723:A *158:18 9.15842e-06
6 *731:A *650:A1 7.24611e-05
7 *731:A *701:A_N 1.00887e-05
8 *731:A *115:8 0.00015244
9 *731:A *116:10 9.67754e-05
10 *731:A *158:18 3.06878e-06
11 *717:A *723:A 5.23735e-05
12 *717:A *731:A 3.46801e-05
*RES
1 *702:Y *731:A 32.5464 
2 *702:Y *723:A 30.6 
*END

*D_NET *102 0.00215492
*CONN
*I *731:B I *D sky130_fd_sc_hd__nor2_2
*I *716:C1 I *D sky130_fd_sc_hd__a211o_2
*I *703:X O *D sky130_fd_sc_hd__and2b_2
*CAP
1 *731:B 0.000336561
2 *716:C1 0.000417219
3 *703:X 0.00075378
4 *716:C1 *716:A1 8.01893e-05
5 *716:C1 *716:A2 1.39726e-05
6 *716:C1 *111:35 0
7 *716:C1 *114:10 0
8 *716:C1 *115:8 6.2993e-05
9 *731:B *115:8 8.17736e-05
10 *731:B *130:17 0.000153545
11 *731:B *183:12 5.52302e-05
12 *650:A2 *716:C1 5.33978e-05
13 *650:A3 *731:B 0.000146261
*RES
1 *703:X *716:C1 35.9214 
2 *703:X *731:B 33.85 
*END

*D_NET *103 0.00124452
*CONN
*I *629:B2 I *D sky130_fd_sc_hd__a2bb2o_2
*I *733:B1 I *D sky130_fd_sc_hd__a31o_2
*I *704:X O *D sky130_fd_sc_hd__and2_2
*CAP
1 *629:B2 0.000125075
2 *733:B1 2.35447e-05
3 *704:X 0.000211445
4 *103:10 0.000360065
5 *629:B2 *630:B1 0.000195562
6 *733:B1 *630:B1 0.000141729
7 *733:B1 *633:B 0.000141729
8 *103:10 *630:B1 3.17148e-05
9 *88:55 *103:10 1.36607e-05
*RES
1 *704:X *103:10 16.8 
2 *103:10 *733:B1 15.1571 
3 *103:10 *629:B2 16.3536 
*END

*D_NET *104 0.00221603
*CONN
*I *628:B2 I *D sky130_fd_sc_hd__a221o_2
*I *733:A3 I *D sky130_fd_sc_hd__a31o_2
*I *705:X O *D sky130_fd_sc_hd__or2_2
*CAP
1 *628:B2 0.000304675
2 *733:A3 1.69531e-05
3 *705:X 0.000197048
4 *104:8 0.000518676
5 *628:B2 *619:B2 0
6 *628:B2 *627:A 0
7 *628:B2 *733:A2 0.000236333
8 *628:B2 *142:12 0.000173251
9 *628:B2 *154:12 2.84269e-05
10 *628:B2 *155:42 4.73355e-05
11 *628:B2 *155:44 0.000304447
12 *733:A3 *630:B1 5.33005e-05
13 *733:A3 *633:B 5.33005e-05
14 *104:8 *627:A 0
15 *104:8 *705:B 7.50601e-05
16 *104:8 *709:B1 0
17 *104:8 *733:A2 5.58941e-05
18 *104:8 *105:10 0
19 *104:8 *156:22 0
20 *104:8 *166:47 5.72318e-05
21 *628:C1 *628:B2 8.5662e-05
22 *632:A1 *628:B2 8.43535e-06
23 *88:55 *104:8 0
*RES
1 *705:X *104:8 17.8714 
2 *104:8 *733:A3 14.3357 
3 *104:8 *628:B2 21.8 
*END

*D_NET *105 0.000950376
*CONN
*I *627:A I *D sky130_fd_sc_hd__nor2_2
*I *767:A I *D sky130_fd_sc_hd__clkbuf_2
*I *706:Y O *D sky130_fd_sc_hd__xnor2_2
*CAP
1 *627:A 0.000157233
2 *767:A 0
3 *706:Y 0.000100437
4 *105:10 0.00025767
5 *627:A *619:B2 3.67257e-05
6 *627:A *707:A_N 9.90431e-05
7 *105:10 *706:A 3.18676e-05
8 *105:10 *709:B1 9.91086e-05
9 *628:B2 *627:A 0
10 *88:55 *627:A 0.000107343
11 *88:55 *105:10 6.09476e-05
12 *104:8 *627:A 0
13 *104:8 *105:10 0
*RES
1 *706:Y *105:10 15.9786 
2 *105:10 *767:A 13.8 
3 *105:10 *627:A 17.6036 
*END

*D_NET *106 0.000996763
*CONN
*I *622:A2 I *D sky130_fd_sc_hd__o21ai_2
*I *623:A2 I *D sky130_fd_sc_hd__a21oi_2
*I *709:A2 I *D sky130_fd_sc_hd__a21o_2
*I *707:Y O *D sky130_fd_sc_hd__nand2b_2
*CAP
1 *622:A2 1.88267e-05
2 *623:A2 0
3 *709:A2 3.79458e-05
4 *707:Y 8.23989e-05
5 *106:14 0.000126459
6 *106:8 0.000189739
7 *622:A2 *707:A_N 5.52302e-05
8 *709:A2 *709:B1 3.29076e-05
9 *709:A2 *108:8 5.33005e-05
10 *106:8 *707:A_N 0.0001399
11 *106:14 *631:A 3.34295e-05
12 *106:14 *178:27 0.000173083
13 *106:14 *188:40 5.35423e-05
*RES
1 *707:Y *106:8 11.0857 
2 *106:8 *106:14 11.5536 
3 *106:14 *709:A2 10.2643 
4 *106:14 *623:A2 9.3 
5 *106:8 *622:A2 9.83571 
*END

*D_NET *107 0.00153141
*CONN
*I *709:B1 I *D sky130_fd_sc_hd__a21o_2
*I *708:X O *D sky130_fd_sc_hd__and2b_2
*CAP
1 *709:B1 0.000326692
2 *708:X 0.000326692
3 *709:B1 *630:B1 0.000268396
4 *709:B1 *709:A1 5.52238e-05
5 *709:B1 *108:8 0.000104286
6 *709:B1 *178:6 0.000260954
7 *709:B1 *178:14 5.71472e-05
8 *709:A2 *709:B1 3.29076e-05
9 *104:8 *709:B1 0
10 *105:10 *709:B1 9.91086e-05
*RES
1 *708:X *709:B1 35.6536 
*END

*D_NET *108 0.00801807
*CONN
*I *713:A I *D sky130_fd_sc_hd__nand2_2
*I *716:A1 I *D sky130_fd_sc_hd__a211o_2
*I *715:A1 I *D sky130_fd_sc_hd__a21o_2
*I *634:A1 I *D sky130_fd_sc_hd__o21a_2
*I *709:X O *D sky130_fd_sc_hd__a21o_2
*CAP
1 *713:A 0
2 *716:A1 0.000150584
3 *715:A1 9.93685e-05
4 *634:A1 3.63412e-05
5 *709:X 0.00107914
6 *108:12 0.000232406
7 *108:8 0.00132642
8 *634:A1 *111:43 2.84398e-05
9 *715:A1 *113:8 0.000139913
10 *716:A1 *716:A2 0.000307088
11 *716:A1 *111:35 7.31409e-05
12 *108:8 *630:B1 5.97996e-05
13 *108:8 *633:B 0.000952364
14 *108:8 *639:A1 6.97409e-05
15 *108:8 *639:C1 0.000102197
16 *108:8 *707:B 0.000314132
17 *108:8 *733:A1 0.000681406
18 *108:8 *111:35 0.00146335
19 *108:8 *178:6 0.000151061
20 *108:8 *178:14 2.89114e-05
21 *108:12 *639:C1 4.46186e-06
22 *108:12 *111:39 2.49484e-05
23 *108:12 *111:43 3.92854e-05
24 *639:A2 *108:12 0
25 *640:A2 *108:8 0.000311183
26 *640:B2 *108:8 0.000104611
27 *709:A2 *108:8 5.33005e-05
28 *709:B1 *108:8 0.000104286
29 *716:C1 *716:A1 8.01893e-05
*RES
1 *709:X *108:8 42.1929 
2 *108:8 *108:12 6.14286 
3 *108:12 *634:A1 14.5321 
4 *108:12 *715:A1 15.1571 
5 *108:8 *716:A1 13.5679 
6 *108:8 *713:A 9.3 
*END

*D_NET *109 0.0014754
*CONN
*I *712:A_N I *D sky130_fd_sc_hd__nand2b_2
*I *638:A1 I *D sky130_fd_sc_hd__a221o_2
*I *734:B1 I *D sky130_fd_sc_hd__a21oi_2
*I *710:X O *D sky130_fd_sc_hd__and2_2
*CAP
1 *712:A_N 8.29044e-05
2 *638:A1 0
3 *734:B1 1.35522e-05
4 *710:X 0.000256494
5 *109:22 0.000325846
6 *712:A_N *638:B2 3.98428e-05
7 *712:A_N *640:A1 0
8 *712:A_N *647:A1 5.83304e-05
9 *734:B1 *711:A 0.00010096
10 *734:B1 *177:14 5.62995e-05
11 *109:22 *638:B2 1.76135e-05
12 *109:22 *640:A1 0
13 *109:22 *711:A 5.71472e-05
14 *109:22 *772:A 3.69697e-05
15 *109:22 *133:14 0.000283691
16 *627:B *109:22 0
17 *640:B1 *109:22 0.000145753
*RES
1 *710:X *734:B1 19.5464 
2 *710:X *109:22 19.0143 
3 *109:22 *638:A1 13.8 
4 *109:22 *712:A_N 15.7464 
*END

*D_NET *110 0.00260916
*CONN
*I *712:B I *D sky130_fd_sc_hd__nand2b_2
*I *637:B2 I *D sky130_fd_sc_hd__a221o_2
*I *734:A1 I *D sky130_fd_sc_hd__a21oi_2
*I *711:X O *D sky130_fd_sc_hd__or2_2
*CAP
1 *712:B 0.000255087
2 *637:B2 8.67384e-06
3 *734:A1 9.93894e-05
4 *711:X 0.000443029
5 *110:26 0.0006074
6 *637:B2 *629:A2_N 7.97838e-06
7 *637:B2 *637:A1 2.85551e-05
8 *712:B *629:A2_N 0.00014183
9 *712:B *637:A1 5.70539e-05
10 *712:B *637:A2 3.33174e-05
11 *712:B *638:A2 0.000154394
12 *712:B *638:B1 0.000146842
13 *712:B *638:B2 9.11365e-06
14 *734:A1 *711:A 0.000149489
15 *734:A1 *177:14 0.000186669
16 *110:26 *630:B1 0
17 *110:26 *637:B1 9.25014e-06
18 *110:26 *111:14 0
19 *110:26 *177:41 0
20 *627:B *712:B 1.69208e-05
21 *637:C1 *110:26 5.80706e-06
22 *638:C1 *712:B 0.000121573
23 *31:31 *712:B 4.1331e-06
24 *88:55 *734:A1 9.61455e-05
25 *88:55 *110:26 2.65105e-05
*RES
1 *711:X *734:A1 22.4393 
2 *711:X *110:26 23.925 
3 *110:26 *637:B2 9.58571 
4 *110:26 *712:B 24.9071 
*END

*D_NET *111 0.00660223
*CONN
*I *636:A I *D sky130_fd_sc_hd__nor2_2
*I *713:B I *D sky130_fd_sc_hd__nand2_2
*I *716:A2 I *D sky130_fd_sc_hd__a211o_2
*I *715:A2 I *D sky130_fd_sc_hd__a21o_2
*I *634:A2 I *D sky130_fd_sc_hd__o21a_2
*I *633:A I *D sky130_fd_sc_hd__xnor2_2
*I *712:Y O *D sky130_fd_sc_hd__nand2b_2
*CAP
1 *636:A 0
2 *713:B 0
3 *716:A2 0.000244087
4 *715:A2 0
5 *634:A2 7.48459e-05
6 *633:A 0
7 *712:Y 8.06589e-05
8 *111:43 0.000172471
9 *111:39 0.000378638
10 *111:35 0.00107159
11 *111:14 0.00125721
12 *111:8 0.000303205
13 *634:A2 *715:B1 3.99614e-06
14 *634:A2 *113:8 8.07313e-05
15 *111:8 *638:B1 0.000105998
16 *111:8 *647:A1 1.02936e-05
17 *111:8 *142:25 0.000273269
18 *111:14 *637:A2 0.000170661
19 *111:14 *177:41 0.000332779
20 *111:35 *177:41 1.88048e-05
21 *627:B *111:14 2.39876e-05
22 *634:A1 *111:43 2.84398e-05
23 *638:C1 *111:8 4.87854e-05
24 *716:A1 *716:A2 0.000307088
25 *716:A1 *111:35 7.31409e-05
26 *716:C1 *716:A2 1.39726e-05
27 *716:C1 *111:35 0
28 *108:8 *111:35 0.00146335
29 *108:12 *111:39 2.49484e-05
30 *108:12 *111:43 3.92854e-05
31 *110:26 *111:14 0
*RES
1 *712:Y *111:8 12.3179 
2 *111:8 *111:14 13.9821 
3 *111:14 *633:A 9.3 
4 *111:14 *111:35 25.5357 
5 *111:35 *111:39 5.23214 
6 *111:39 *111:43 6.14286 
7 *111:43 *634:A2 11.0857 
8 *111:43 *715:A2 9.3 
9 *111:39 *716:A2 17.5321 
10 *111:35 *713:B 9.3 
11 *111:8 *636:A 9.3 
*END

*D_NET *112 0.000618181
*CONN
*I *639:A1 I *D sky130_fd_sc_hd__a211o_2
*I *713:Y O *D sky130_fd_sc_hd__nand2_2
*CAP
1 *639:A1 0.000179927
2 *713:Y 0.000179927
3 *639:A1 *639:C1 0.000188586
4 *108:8 *639:A1 6.97409e-05
*RES
1 *713:Y *639:A1 22.4393 
*END

*D_NET *113 0.00158386
*CONN
*I *716:B1 I *D sky130_fd_sc_hd__a211o_2
*I *715:B1 I *D sky130_fd_sc_hd__a21o_2
*I *714:X O *D sky130_fd_sc_hd__and2b_2
*CAP
1 *716:B1 0.000153275
2 *715:B1 2.06112e-05
3 *714:X 0.000263355
4 *113:8 0.00043724
5 *716:B1 *114:10 4.94455e-05
6 *634:A2 *715:B1 3.99614e-06
7 *634:A2 *113:8 8.07313e-05
8 *639:A2 *113:8 0.000232399
9 *715:A1 *113:8 0.000139913
10 *88:55 *113:8 0.000202891
*RES
1 *714:X *113:8 16.425 
2 *113:8 *715:B1 9.72857 
3 *113:8 *716:B1 20.7821 
*END

*D_NET *114 0.00109873
*CONN
*I *643:A I *D sky130_fd_sc_hd__nand2_2
*I *642:A I *D sky130_fd_sc_hd__or2_2
*I *715:X O *D sky130_fd_sc_hd__a21o_2
*CAP
1 *643:A 6.37342e-05
2 *642:A 0
3 *715:X 0.000325105
4 *114:10 0.000388839
5 *643:A *115:8 9.80029e-05
6 *643:A *130:17 5.80706e-06
7 *643:A *130:21 8.39e-05
8 *114:10 *115:8 8.39e-05
9 *716:B1 *114:10 4.94455e-05
10 *716:C1 *114:10 0
*RES
1 *715:X *114:10 19.425 
2 *114:10 *642:A 13.8 
3 *114:10 *643:A 16.05 
*END

*D_NET *115 0.00244911
*CONN
*I *723:C_N I *D sky130_fd_sc_hd__or3b_2
*I *717:B I *D sky130_fd_sc_hd__nand2_2
*I *716:X O *D sky130_fd_sc_hd__a211o_2
*CAP
1 *723:C_N 0.000113968
2 *717:B 2.40296e-05
3 *716:X 0.000336969
4 *115:8 0.000474967
5 *717:B *116:10 5.23822e-05
6 *717:B *158:18 5.23822e-05
7 *723:C_N *650:A1 3.42608e-05
8 *723:C_N *652:B 3.49456e-06
9 *723:C_N *116:10 7.15235e-05
10 *723:C_N *122:10 4.06415e-05
11 *115:8 *650:A1 2.19586e-05
12 *115:8 *701:A_N 5.2431e-05
13 *115:8 *116:10 3.02892e-05
14 *115:8 *130:17 0
15 *643:A *115:8 9.80029e-05
16 *650:A2 *115:8 0.00040971
17 *650:A3 *115:8 0.000195998
18 *653:B *723:C_N 5.49995e-05
19 *716:C1 *115:8 6.2993e-05
20 *731:A *115:8 0.00015244
21 *731:B *115:8 8.17736e-05
22 *114:10 *115:8 8.39e-05
*RES
1 *716:X *115:8 25.4607 
2 *115:8 *717:B 14.7464 
3 *115:8 *723:C_N 16.7107 
*END

*D_NET *116 0.00131587
*CONN
*I *721:A I *D sky130_fd_sc_hd__nor2_2
*I *652:A I *D sky130_fd_sc_hd__nand2_2
*I *717:Y O *D sky130_fd_sc_hd__nand2_2
*CAP
1 *721:A 0.000149837
2 *652:A 0
3 *717:Y 0.000224908
4 *116:10 0.000374745
5 *721:A *652:B 8.06908e-05
6 *721:A *722:B 3.48235e-05
7 *721:A *119:29 7.6644e-05
8 *721:A *119:63 7.6644e-05
9 *721:A *122:10 8.3185e-06
10 *721:A *176:54 0
11 *116:10 *122:10 8.91963e-06
12 *116:10 *158:18 2.93702e-05
13 *717:B *116:10 5.23822e-05
14 *723:C_N *116:10 7.15235e-05
15 *731:A *116:10 9.67754e-05
16 *115:8 *116:10 3.02892e-05
*RES
1 *717:Y *116:10 18.8357 
2 *116:10 *652:A 13.8 
3 *116:10 *721:A 17.3179 
*END

*D_NET *117 0.00336333
*CONN
*I *656:A1 I *D sky130_fd_sc_hd__a22o_2
*I *738:C1 I *D sky130_fd_sc_hd__a211o_2
*I *737:B1 I *D sky130_fd_sc_hd__a21oi_2
*I *720:A I *D sky130_fd_sc_hd__nor2_2
*I *718:X O *D sky130_fd_sc_hd__and2_2
*CAP
1 *656:A1 0.000186809
2 *738:C1 0.000114545
3 *737:B1 2.3671e-05
4 *720:A 0.000137816
5 *718:X 0.000246446
6 *117:35 0.000358168
7 *117:22 0.000189114
8 *656:A1 *656:B2 0.00014285
9 *656:A1 *737:A1 0.000139913
10 *656:A1 *119:81 9.71197e-05
11 *656:A1 *176:50 6.62898e-05
12 *720:A *657:A1 0
13 *720:A *720:B 5.52238e-05
14 *720:A *119:8 8.43535e-06
15 *720:A *184:35 0.00010096
16 *720:A *184:45 0.000105569
17 *737:B1 *176:50 5.52302e-05
18 *738:C1 *669:A1 0
19 *738:C1 *738:A2 0.000109035
20 *738:C1 *136:8 0.000125724
21 *738:C1 *185:16 6.87574e-05
22 *117:22 *134:32 0
23 *117:22 *176:54 0
24 *117:35 *669:A1 0
25 *657:B1 *656:A1 2.51343e-06
26 *663:A *720:A 0.00048939
27 *665:A1 *656:A1 0.000356028
28 *668:B1 *738:C1 0.00018372
*RES
1 *718:X *720:A 23.6714 
2 *718:X *117:22 15.4429 
3 *117:22 *737:B1 14.3357 
4 *117:22 *117:35 1.11607 
5 *117:35 *738:C1 17.6661 
6 *117:35 *656:A1 19.2643 
*END

*D_NET *118 0.00103199
*CONN
*I *720:B I *D sky130_fd_sc_hd__nor2_2
*I *654:A_N I *D sky130_fd_sc_hd__and2b_2
*I *719:Y O *D sky130_fd_sc_hd__nor2_2
*CAP
1 *720:B 0.000134073
2 *654:A_N 0.000131952
3 *719:Y 0
4 *118:6 0.000266024
5 *654:A_N *658:A 2.94103e-05
6 *654:A_N *659:B1 0.000100165
7 *654:A_N *119:10 5.97719e-05
8 *720:B *657:C1 0
9 *720:B *119:8 2.89016e-05
10 *720:B *119:10 1.3142e-05
11 *720:B *119:79 1.17968e-05
12 *720:B *184:45 0.000148196
13 *660:A4 *720:B 0
14 *660:B1 *654:A_N 5.33334e-05
15 *660:B1 *720:B 0
16 *720:A *720:B 5.52238e-05
*RES
1 *719:Y *118:6 13.8 
2 *118:6 *654:A_N 16.9964 
3 *118:6 *720:B 16.8893 
*END

*D_NET *119 0.00670809
*CONN
*I *737:A1 I *D sky130_fd_sc_hd__a21oi_2
*I *738:A1 I *D sky130_fd_sc_hd__a211o_2
*I *656:B2 I *D sky130_fd_sc_hd__a22o_2
*I *721:B I *D sky130_fd_sc_hd__nor2_2
*I *736:A I *D sky130_fd_sc_hd__nand2_2
*I *722:B I *D sky130_fd_sc_hd__or2_2
*I *652:B I *D sky130_fd_sc_hd__nand2_2
*I *658:A I *D sky130_fd_sc_hd__or2_2
*I *720:Y O *D sky130_fd_sc_hd__nor2_2
*CAP
1 *737:A1 3.03431e-05
2 *738:A1 0.000133311
3 *656:B2 2.20979e-05
4 *721:B 0
5 *736:A 0.000166196
6 *722:B 8.98724e-05
7 *652:B 0.00014002
8 *658:A 0.000131576
9 *720:Y 0.000111488
10 *119:81 0.000176947
11 *119:79 0.000203574
12 *119:63 0.000235208
13 *119:35 0.000333643
14 *119:29 0.000836545
15 *119:10 0.000933247
16 *119:8 0.000401069
17 *652:B *122:10 6.5185e-05
18 *656:B2 *176:50 8.07313e-05
19 *658:A *658:B 5.66971e-05
20 *658:A *134:21 0.00011164
21 *658:A *158:18 5.50052e-05
22 *722:B *667:C1 0.000125731
23 *722:B *122:10 0.000114111
24 *722:B *176:54 0
25 *737:A1 *737:A2 5.52238e-05
26 *737:A1 *176:50 3.82839e-05
27 *119:8 *184:45 5.33005e-05
28 *119:10 *134:21 7.50697e-05
29 *119:10 *134:32 5.84171e-05
30 *119:10 *184:45 0.00012401
31 *119:29 *659:A1 3.2033e-05
32 *119:29 *659:B1 3.69047e-06
33 *119:29 *176:54 0
34 *119:35 *774:A 0.000137983
35 *119:63 *120:8 1.24368e-05
36 *119:63 *176:54 0
37 *119:79 *657:C1 0
38 *119:79 *738:A2 1.17968e-05
39 *119:79 *134:32 0.000124967
40 *119:79 *176:35 0
41 *119:79 *184:45 2.24646e-05
42 *119:81 *176:50 4.58976e-05
43 *654:A_N *658:A 2.94103e-05
44 *654:A_N *119:10 5.97719e-05
45 *656:A1 *656:B2 0.00014285
46 *656:A1 *737:A1 0.000139913
47 *656:A1 *119:81 9.71197e-05
48 *660:A1 *736:A 0.00044852
49 *660:A1 *119:63 4.18895e-05
50 *660:A3 *658:A 0
51 *665:A1 *738:A1 6.42338e-05
52 *677:A2 *738:A1 0
53 *720:A *119:8 8.43535e-06
54 *720:B *119:8 2.89016e-05
55 *720:B *119:10 1.3142e-05
56 *720:B *119:79 1.17968e-05
57 *721:A *652:B 8.06908e-05
58 *721:A *722:B 3.48235e-05
59 *721:A *119:29 7.6644e-05
60 *721:A *119:63 7.6644e-05
61 *723:C_N *652:B 3.49456e-06
*RES
1 *720:Y *119:8 15.1571 
2 *119:8 *119:10 3.46429 
3 *119:10 *658:A 17.1929 
4 *119:10 *119:29 17.1429 
5 *119:29 *119:35 10.3571 
6 *119:35 *652:B 16.8179 
7 *119:35 *722:B 16.6571 
8 *119:29 *119:63 6.07143 
9 *119:63 *736:A 13.5321 
10 *119:63 *721:B 9.3 
11 *119:8 *119:79 7.96429 
12 *119:79 *119:81 0.946429 
13 *119:81 *656:B2 10.6571 
14 *119:81 *738:A1 20.55 
15 *119:79 *737:A1 10.6571 
*END

*D_NET *120 0.000959794
*CONN
*I *653:A_N I *D sky130_fd_sc_hd__and3b_2
*I *667:C1 I *D sky130_fd_sc_hd__a211o_2
*I *721:Y O *D sky130_fd_sc_hd__nor2_2
*CAP
1 *653:A_N 0
2 *667:C1 0.000159031
3 *721:Y 7.73572e-05
4 *120:8 0.000236388
5 *667:C1 *122:10 9.08751e-05
6 *667:C1 *176:54 0
7 *667:C1 *184:35 0.000201127
8 *660:A1 *120:8 4.27437e-05
9 *663:A *667:C1 1.41029e-05
10 *722:B *667:C1 0.000125731
11 *119:63 *120:8 1.24368e-05
*RES
1 *721:Y *120:8 10.675 
2 *120:8 *667:C1 22.9786 
3 *120:8 *653:A_N 9.3 
*END

*D_NET *121 0.000786344
*CONN
*I *723:B I *D sky130_fd_sc_hd__or3b_2
*I *722:X O *D sky130_fd_sc_hd__or2_2
*CAP
1 *723:B 0.000251217
2 *722:X 0.000251217
3 *723:B *650:A1 8.78595e-05
4 *723:B *123:12 9.69119e-06
5 *723:B *159:18 9.90367e-05
6 *723:B *179:62 4.25809e-05
7 *723:B *184:10 0
8 *722:A *723:B 4.47421e-05
*RES
1 *722:X *723:B 32.3143 
*END

*D_NET *122 0.00409666
*CONN
*I *727:A1 I *D sky130_fd_sc_hd__a31o_2
*I *672:A2 I *D sky130_fd_sc_hd__a41oi_2
*I *668:A2 I *D sky130_fd_sc_hd__a41o_2
*I *723:X O *D sky130_fd_sc_hd__or3b_2
*CAP
1 *727:A1 0
2 *672:A2 9.34341e-05
3 *668:A2 0
4 *723:X 0.000408484
5 *122:29 0.000494176
6 *122:10 0.000809226
7 *672:A2 *672:A3 0.000117903
8 *672:A2 *123:25 1.02504e-05
9 *122:10 *650:A1 9.40528e-05
10 *122:10 *179:62 0.000498521
11 *122:29 *727:A3 9.90367e-05
12 *122:29 *123:25 0.000133005
13 *122:29 *179:60 0.000611559
14 *122:29 *179:62 1.02504e-05
15 *652:B *122:10 6.5185e-05
16 *653:B *122:10 0.000142957
17 *663:A *122:10 0
18 *667:C1 *122:10 9.08751e-05
19 *721:A *122:10 8.3185e-06
20 *722:B *122:10 0.000114111
21 *723:C_N *122:10 4.06415e-05
22 *727:B1 *672:A2 6.74911e-05
23 *94:52 *672:A2 4.46186e-06
24 *95:29 *122:29 0.000173804
25 *99:14 *122:29 0
26 *99:16 *122:10 0
27 *116:10 *122:10 8.91963e-06
*RES
1 *723:X *122:10 24.8893 
2 *122:10 *668:A2 13.8 
3 *122:10 *122:29 15.2679 
4 *122:29 *672:A2 20.4786 
5 *122:29 *727:A1 9.3 
*END

*D_NET *123 0.00337504
*CONN
*I *672:A3 I *D sky130_fd_sc_hd__a41oi_2
*I *727:A2 I *D sky130_fd_sc_hd__a31o_2
*I *668:A3 I *D sky130_fd_sc_hd__a41o_2
*I *724:X O *D sky130_fd_sc_hd__or3b_2
*CAP
1 *672:A3 0.000108075
2 *727:A2 0
3 *668:A3 0
4 *724:X 0.000308636
5 *123:25 0.000464372
6 *123:12 0.000664933
7 *672:A3 *126:12 6.74911e-05
8 *123:12 *687:A 0.00034732
9 *123:12 *159:12 0.000153054
10 *123:12 *179:62 0
11 *123:12 *184:10 4.81157e-05
12 *123:12 *184:23 0.000103993
13 *123:12 *185:6 4.58976e-05
14 *123:12 *185:16 0.000132967
15 *123:25 *126:12 5.80706e-06
16 *123:25 *179:60 0
17 *123:25 *185:16 0.000103039
18 *668:A4 *123:12 0.000136951
19 *668:A4 *123:25 4.88637e-05
20 *672:A2 *672:A3 0.000117903
21 *672:A2 *123:25 1.02504e-05
22 *723:B *123:12 9.69119e-06
23 *727:B1 *123:25 1.00375e-05
24 *762:A *123:12 0
25 *95:29 *123:25 8.91726e-05
26 *97:18 *123:25 0.000106542
27 *98:10 *123:12 6.8646e-06
28 *99:12 *123:25 7.60306e-05
29 *99:14 *123:25 7.60306e-05
30 *122:29 *123:25 0.000133005
*RES
1 *724:X *123:12 27.6036 
2 *123:12 *668:A3 9.3 
3 *123:12 *123:25 13.5893 
4 *123:25 *727:A2 13.8 
5 *123:25 *672:A3 16.5143 
*END

*D_NET *124 0.000311765
*CONN
*I *726:A I *D sky130_fd_sc_hd__inv_2
*I *725:X O *D sky130_fd_sc_hd__and2b_2
*CAP
1 *726:A 0.000133413
2 *725:X 0.000133413
3 *726:A *125:10 4.4939e-05
4 *726:A *179:60 0
*RES
1 *725:X *726:A 30.0821 
*END

*D_NET *125 0.0011477
*CONN
*I *672:A4 I *D sky130_fd_sc_hd__a41oi_2
*I *727:A3 I *D sky130_fd_sc_hd__a31o_2
*I *726:Y O *D sky130_fd_sc_hd__inv_2
*CAP
1 *672:A4 0
2 *727:A3 0.000190168
3 *726:Y 0.000174038
4 *125:10 0.000364206
5 *727:A3 *725:B 8.16036e-05
6 *727:A3 *179:60 8.16036e-05
7 *125:10 *725:B 3.40128e-05
8 *125:10 *179:60 7.80929e-05
9 *726:A *125:10 4.4939e-05
10 *122:29 *727:A3 9.90367e-05
*RES
1 *726:Y *125:10 17.1036 
2 *125:10 *727:A3 17.925 
3 *125:10 *672:A4 13.8 
*END

*D_NET *126 0.00746596
*CONN
*I *680:B I *D sky130_fd_sc_hd__nand3_2
*I *729:A1 I *D sky130_fd_sc_hd__a21o_2
*I *671:B I *D sky130_fd_sc_hd__nand2_2
*I *727:X O *D sky130_fd_sc_hd__a31o_2
*CAP
1 *680:B 0
2 *729:A1 7.72475e-05
3 *671:B 2.21089e-05
4 *727:X 0.000226675
5 *126:45 0.000162413
6 *126:39 0.00192752
7 *126:12 0.00209114
8 *671:B *179:60 5.52238e-05
9 *729:A1 *729:A2 0.000127246
10 *126:12 *179:60 0.000369381
11 *126:39 *679:B 0.000878174
12 *126:39 *776:A 0.000205005
13 *126:39 *777:A 4.1331e-06
14 *126:39 *127:12 5.93614e-05
15 *126:39 *161:10 0
16 *126:39 *179:45 0.000673318
17 *126:45 *729:A2 9.90431e-05
18 *126:45 *127:12 9.77414e-05
19 *126:45 *142:75 0.000120814
20 *672:A3 *126:12 6.74911e-05
21 *672:B1 *671:B 3.69047e-06
22 *686:B1 *126:39 0.000192426
23 *94:52 *126:12 0
24 *123:25 *126:12 5.80706e-06
*RES
1 *727:X *126:12 24.4429 
2 *126:12 *671:B 9.83571 
3 *126:12 *126:39 49.9464 
4 *126:39 *126:45 7.10714 
5 *126:45 *729:A1 19.9429 
6 *126:45 *680:B 9.3 
*END

*D_NET *127 0.00104157
*CONN
*I *680:C I *D sky130_fd_sc_hd__nand3_2
*I *729:A2 I *D sky130_fd_sc_hd__a21o_2
*I *728:Y O *D sky130_fd_sc_hd__nand2b_2
*CAP
1 *680:C 0
2 *729:A2 0.000106092
3 *728:Y 0.000181913
4 *127:12 0.000288005
5 *127:12 *142:75 2.93922e-05
6 *686:B1 *729:A2 4.69774e-05
7 *686:B1 *127:12 5.79582e-06
8 *729:A1 *729:A2 0.000127246
9 *126:39 *127:12 5.93614e-05
10 *126:45 *729:A2 9.90431e-05
11 *126:45 *127:12 9.77414e-05
*RES
1 *728:Y *127:12 22.0143 
2 *127:12 *729:A2 21.1929 
3 *127:12 *680:C 9.3 
*END

*D_NET *128 0.00136183
*CONN
*I *685:A2 I *D sky130_fd_sc_hd__a31o_2
*I *744:A3 I *D sky130_fd_sc_hd__a32o_2
*I *729:X O *D sky130_fd_sc_hd__a21o_2
*CAP
1 *685:A2 7.05723e-05
2 *744:A3 0.000288577
3 *729:X 0.000219788
4 *128:6 0.000578938
5 *685:A2 *685:A1 4.46186e-06
6 *744:A3 *744:B1 5.71472e-05
7 *685:B1 *685:A2 3.38136e-05
8 *692:B *744:A3 5.52302e-05
9 *91:25 *685:A2 0
10 *91:25 *128:6 5.33005e-05
*RES
1 *729:X *128:6 12.7107 
2 *128:6 *744:A3 14.2643 
3 *128:6 *685:A2 19.6393 
*END

*D_NET *129 0.000436824
*CONN
*I *735:B1 I *D sky130_fd_sc_hd__o21ai_2
*I *730:Y O *D sky130_fd_sc_hd__nand2_2
*CAP
1 *735:B1 0.000129688
2 *730:Y 0.000129688
3 *735:B1 *730:A 0.00012249
4 *735:B1 *183:26 5.4959e-05
*RES
1 *730:Y *735:B1 30.1893 
*END

*D_NET *130 0.00531342
*CONN
*I *646:C I *D sky130_fd_sc_hd__or3_2
*I *643:B I *D sky130_fd_sc_hd__nand2_2
*I *642:B I *D sky130_fd_sc_hd__or2_2
*I *641:A I *D sky130_fd_sc_hd__xnor2_2
*I *735:A1 I *D sky130_fd_sc_hd__o21ai_2
*I *731:Y O *D sky130_fd_sc_hd__nor2_2
*CAP
1 *646:C 0.000784649
2 *643:B 0
3 *642:B 0
4 *641:A 0.000270141
5 *735:A1 0.00101865
6 *731:Y 2.15163e-05
7 *130:21 0.000331578
8 *130:17 0.000282428
9 *130:6 0.000476506
10 *646:C *646:B 2.50656e-05
11 *646:C *648:A3 7.1384e-05
12 *646:C *730:A 0.00028388
13 *646:C *148:23 9.66977e-05
14 *646:C *148:27 1.41642e-05
15 *735:A1 *730:A 5.49995e-05
16 *735:A1 *134:10 7.25873e-06
17 *130:21 *639:C1 0
18 *643:A *130:17 5.80706e-06
19 *643:A *130:21 8.39e-05
20 *647:B2 *646:C 1.84776e-05
21 *649:C_N *646:C 0.000397412
22 *650:A3 *130:17 1.97463e-05
23 *651:A2_N *641:A 3.18676e-05
24 *651:A2_N *130:17 0.000134029
25 *651:A2_N *130:21 6.74911e-05
26 *731:B *130:17 0.000153545
27 *53:16 *646:C 7.36267e-05
28 *53:16 *735:A1 0.000546036
29 *53:16 *130:6 4.25684e-05
30 *115:8 *130:17 0
*RES
1 *731:Y *130:6 9.83571 
2 *130:6 *735:A1 15.5857 
3 *130:6 *130:17 9.48214 
4 *130:17 *130:21 6.44643 
5 *130:21 *641:A 13.9607 
6 *130:21 *642:B 9.3 
7 *130:17 *643:B 13.8 
8 *735:A1 *646:C 43.1357 
*END

*D_NET *131 0.00146251
*CONN
*I *613:A0 I *D sky130_fd_sc_hd__mux2_1
*I *631:B I *D sky130_fd_sc_hd__xor2_2
*I *732:Y O *D sky130_fd_sc_hd__nand2_2
*CAP
1 *613:A0 0.000422036
2 *631:B 0.000545436
3 *732:Y 0.0001234
4 *613:A0 *614:A1 0.000106576
5 *613:A0 *614:B1 0.000126278
6 *613:A0 *732:A 0
7 *613:A0 *188:40 0
8 *631:B *732:B 7.17283e-05
9 Y[0] *613:A0 0
10 *747:A *613:A0 0
11 *765:A *613:A0 6.70605e-05
*RES
1 *732:Y *631:B 11.7375 
2 *631:B *613:A0 25.3357 
*END

*D_NET *132 0.00215452
*CONN
*I *734:A2 I *D sky130_fd_sc_hd__a21oi_2
*I *633:B I *D sky130_fd_sc_hd__xnor2_2
*I *733:X O *D sky130_fd_sc_hd__a31o_2
*CAP
1 *734:A2 9.95559e-05
2 *633:B 0.000392627
3 *733:X 0.000293071
4 *633:B *630:B1 0.000121323
5 *734:A2 *772:A 0
6 *734:A2 *133:14 0
7 *734:A2 *177:30 5.80706e-06
8 *734:A2 *177:41 9.47456e-05
9 *733:A3 *633:B 5.33005e-05
10 *733:B1 *633:B 0.000141729
11 *108:8 *633:B 0.000952364
*RES
1 *733:X *633:B 27.7607 
2 *633:B *734:A2 29.85 
*END

*D_NET *133 0.00300724
*CONN
*I *641:B I *D sky130_fd_sc_hd__xnor2_2
*I *735:A2 I *D sky130_fd_sc_hd__o21ai_2
*I *734:Y O *D sky130_fd_sc_hd__a21oi_2
*CAP
1 *641:B 9.92807e-05
2 *735:A2 0.000428016
3 *734:Y 0.000419556
4 *133:14 0.000946853
5 *735:A2 *639:C1 0
6 *735:A2 *640:A1 0
7 *735:A2 *659:B1 0
8 *735:A2 *730:A 4.68894e-05
9 *133:14 *638:A2 9.74218e-05
10 *133:14 *711:A 5.71472e-05
11 *133:14 *177:41 0
12 *639:B1 *641:B 0.000129515
13 *639:B1 *133:14 0.000404707
14 *640:B1 *133:14 9.41642e-05
15 *734:A2 *133:14 0
16 *109:22 *133:14 0.000283691
*RES
1 *734:Y *133:14 28.0679 
2 *133:14 *735:A2 26.0143 
3 *133:14 *641:B 11.4964 
*END

*D_NET *134 0.00324315
*CONN
*I *738:A2 I *D sky130_fd_sc_hd__a211o_2
*I *737:A2 I *D sky130_fd_sc_hd__a21oi_2
*I *736:B I *D sky130_fd_sc_hd__nand2_2
*I *658:B I *D sky130_fd_sc_hd__or2_2
*I *735:Y O *D sky130_fd_sc_hd__o21ai_2
*CAP
1 *738:A2 0.000191346
2 *737:A2 1.1624e-05
3 *736:B 1.16062e-05
4 *658:B 5.40625e-05
5 *735:Y 0.000155327
6 *134:32 0.000416812
7 *134:21 0.000408211
8 *134:10 0.000392153
9 *658:B *158:18 4.51148e-05
10 *736:B *719:A 5.52302e-05
11 *737:A2 *176:50 5.52238e-05
12 *738:A2 *185:16 0.000263269
13 *134:10 *730:A 1.62025e-05
14 *134:21 *659:A1 7.80235e-05
15 *134:32 *718:A 4.73656e-05
16 *134:32 *719:A 8.00806e-05
17 *658:A *658:B 5.66971e-05
18 *658:A *134:21 0.00011164
19 *659:A2 *134:21 0.000125679
20 *660:A1 *736:B 5.52302e-05
21 *665:A1 *738:A2 6.42338e-05
22 *668:B1 *738:A2 8.86512e-05
23 *735:A1 *134:10 7.25873e-06
24 *737:A1 *737:A2 5.52238e-05
25 *738:C1 *738:A2 0.000109035
26 *96:10 *738:A2 1.76039e-05
27 *117:22 *134:32 0
28 *119:10 *134:21 7.50697e-05
29 *119:10 *134:32 5.84171e-05
30 *119:79 *738:A2 1.17968e-05
31 *119:79 *134:32 0.000124967
*RES
1 *735:Y *134:10 16.5857 
2 *134:10 *658:B 15.1571 
3 *134:10 *134:21 4.98214 
4 *134:21 *736:B 14.3357 
5 *134:21 *134:32 4.67857 
6 *134:32 *737:A2 14.3357 
7 *134:32 *738:A2 19.2643 
*END

*D_NET *135 0.000400425
*CONN
*I *659:A1 I *D sky130_fd_sc_hd__a21o_2
*I *736:Y O *D sky130_fd_sc_hd__nand2_2
*CAP
1 *659:A1 0.000145184
2 *736:Y 0.000145184
3 *659:A1 *176:54 0
4 *119:29 *659:A1 3.2033e-05
5 *134:21 *659:A1 7.80235e-05
*RES
1 *736:Y *659:A1 30.4929 
*END

*D_NET *136 0.000962435
*CONN
*I *661:B I *D sky130_fd_sc_hd__or2_2
*I *662:B I *D sky130_fd_sc_hd__nand2_2
*I *737:Y O *D sky130_fd_sc_hd__a21oi_2
*CAP
1 *661:B 0.000168912
2 *662:B 3.16789e-05
3 *737:Y 7.33266e-05
4 *136:8 0.000273918
5 *661:B *669:A1 0
6 *662:B *185:16 0.000102207
7 *136:8 *669:A1 0
8 *668:B1 *662:B 0.000186669
9 *669:B1 *661:B 0
10 *738:C1 *136:8 0.000125724
11 *96:10 *661:B 0
*RES
1 *737:Y *136:8 15.4429 
2 *136:8 *662:B 15.5679 
3 *136:8 *661:B 16.6571 
*END

*D_NET *137 0.00231934
*CONN
*I *740:A3 I *D sky130_fd_sc_hd__a31o_2
*I *739:B I *D sky130_fd_sc_hd__nand2_2
*I *738:X O *D sky130_fd_sc_hd__a211o_2
*CAP
1 *740:A3 0.000289977
2 *739:B 6.53954e-05
3 *738:X 0.000288439
4 *137:10 0.000643811
5 *740:A3 *670:B 0
6 *740:A3 *679:B 5.33433e-05
7 *137:10 *185:16 2.27416e-05
8 *677:A2 *740:A3 0.000140375
9 *677:A2 *137:10 0.000543361
10 *94:20 *740:A3 5.91336e-05
11 *94:35 *740:A3 2.60984e-05
12 *96:10 *137:10 0
13 *97:31 *739:B 0.000186669
*RES
1 *738:X *137:10 21.1393 
2 *137:10 *739:B 15.5679 
3 *137:10 *740:A3 19.1571 
*END

*D_NET *138 0.000757468
*CONN
*I *670:B I *D sky130_fd_sc_hd__xnor2_2
*I *739:Y O *D sky130_fd_sc_hd__nand2_2
*CAP
1 *670:B 0.000253085
2 *739:Y 0.000253085
3 *670:B *776:A 4.48206e-05
4 *670:B *142:75 2.39779e-05
5 *677:A2 *670:B 0
6 *740:A3 *670:B 0
7 *94:35 *670:B 0.000150632
8 *97:18 *670:B 3.18676e-05
*RES
1 *739:Y *670:B 32.5107 
*END

*D_NET *139 0.00435346
*CONN
*I *741:A2 I *D sky130_fd_sc_hd__a21o_2
*I *679:B I *D sky130_fd_sc_hd__xor2_2
*I *740:X O *D sky130_fd_sc_hd__a31o_2
*CAP
1 *741:A2 0.000129183
2 *679:B 0.000726467
3 *740:X 0.000597284
4 *679:B *673:B 0.000171375
5 *679:B *694:A 0.000142856
6 *679:B *728:B 0.000116345
7 *679:B *142:75 0.000101545
8 *679:B *179:45 0.000195978
9 *679:B *186:10 0
10 *741:A2 *685:A1 8.89385e-05
11 *741:A2 *179:10 2.73968e-05
12 *673:A_N *679:B 0.000230482
13 *674:B1 *679:B 2.39779e-05
14 *679:A *741:A2 0.000184
15 *685:B1 *741:A2 1.02504e-05
16 *686:B1 *679:B 0.000185964
17 *686:B2 *679:B 0.000316562
18 *740:A3 *679:B 5.33433e-05
19 *91:8 *741:A2 3.34295e-05
20 *94:20 *679:B 0.000139907
21 *126:39 *679:B 0.000878174
*RES
1 *740:X *679:B 36.9696 
2 *679:B *741:A2 22.0589 
*END

*D_NET *140 0.000567133
*CONN
*I *744:B1 I *D sky130_fd_sc_hd__a32o_2
*I *741:X O *D sky130_fd_sc_hd__a21o_2
*CAP
1 *744:B1 0.000170995
2 *741:X 0.000170995
3 *692:A *744:B1 9.25014e-06
4 *741:B1 *744:B1 7.71417e-05
5 *744:A3 *744:B1 5.71472e-05
6 *778:A *744:B1 8.16036e-05
*RES
1 *741:X *744:B1 31.4036 
*END

*D_NET *141 0.0101802
*CONN
*I *766:A I *D sky130_fd_sc_hd__clkbuf_2
*I *682:B1 I *D sky130_fd_sc_hd__a21o_2
*I *649:A I *D sky130_fd_sc_hd__or3b_2
*I *630:D1 I *D sky130_fd_sc_hd__a2111o_2
*I *744:B2 I *D sky130_fd_sc_hd__a32o_2
*I *742:Y O *D sky130_fd_sc_hd__nor3_2
*CAP
1 *766:A 3.95622e-05
2 *682:B1 0.000572884
3 *649:A 0.000167214
4 *630:D1 0.00023632
5 *744:B2 0.000348919
6 *742:Y 0.00024524
7 *141:33 0.000863761
8 *141:29 0.00103311
9 *141:27 0.000628506
10 *141:8 0.0011831
11 *630:D1 *142:12 6.6894e-06
12 *630:D1 *142:25 5.65955e-05
13 *630:D1 *155:42 0.000170618
14 *630:D1 *155:44 0.000101178
15 *649:A *619:A3 3.69047e-06
16 *649:A *619:B1 0.00061241
17 *649:A *148:23 0.000101692
18 *682:B1 *675:A1 4.4622e-05
19 *682:B1 *683:A2_N 7.57394e-05
20 *682:B1 *142:55 0.000259921
21 *682:B1 *154:72 0
22 *682:B1 *154:81 0.000100774
23 *744:B2 *690:A 8.18071e-05
24 *744:B2 *162:8 8.17615e-05
25 *744:B2 *162:10 6.39262e-05
26 *141:8 *614:B1 2.49484e-05
27 *141:8 *165:20 0.000126209
28 *141:8 *181:10 0
29 *141:8 *182:108 0.000222878
30 *141:27 *690:A 5.71472e-05
31 *141:27 *690:B 7.03393e-05
32 *141:27 *181:10 0.000183713
33 *141:33 *621:C 0.00010326
34 *141:33 *625:B 2.29627e-05
35 *141:33 *768:A 0
36 *141:33 *142:12 0.00103634
37 *141:33 *142:55 0.000101545
38 *141:33 *148:10 0.000299118
39 *141:33 *154:72 0
40 *141:33 *180:20 2.09495e-05
41 *141:33 *181:46 0.000126439
42 *141:33 *181:69 0
43 *649:C_N *649:A 0.00039885
44 *683:B1 *682:B1 0.000152409
45 *754:A *744:B2 0
46 *755:A *744:B2 0
47 *755:A *141:8 0
48 *88:10 *744:B2 0
49 *88:10 *141:8 0
50 *88:10 *141:27 0
51 *89:12 *744:B2 0.000153047
*RES
1 *742:Y *141:8 19.2375 
2 *141:8 *744:B2 22.2018 
3 *141:8 *141:27 14.4732 
4 *141:27 *141:29 4.5 
5 *141:29 *141:33 15.4911 
6 *141:33 *630:D1 18.2554 
7 *141:33 *649:A 20.7732 
8 *141:29 *682:B1 33.3893 
9 *141:27 *766:A 9.83571 
*END

*D_NET *142 0.0155458
*CONN
*I *686:A1 I *D sky130_fd_sc_hd__o22a_2
*I *678:A1 I *D sky130_fd_sc_hd__o22a_2
*I *659:B1 I *D sky130_fd_sc_hd__a21o_2
*I *640:A1 I *D sky130_fd_sc_hd__o22a_2
*I *632:B2 I *D sky130_fd_sc_hd__o22a_2
*I *743:X O *D sky130_fd_sc_hd__or3_2
*CAP
1 *686:A1 0.00010879
2 *678:A1 0
3 *659:B1 0.000682846
4 *640:A1 0.000323243
5 *632:B2 0.000168528
6 *743:X 4.16687e-05
7 *142:75 0.00159197
8 *142:55 0.00229191
9 *142:25 0.00193938
10 *142:12 0.00161764
11 *142:6 0.00114864
12 *640:A1 *647:A1 0
13 *659:B1 *647:A1 0
14 *142:6 *625:C_N 2.89016e-05
15 *142:12 *732:B 3.54498e-05
16 *142:12 *154:12 0.000212063
17 *142:12 *154:72 7.86249e-05
18 *142:12 *155:12 0.000135998
19 *142:12 *155:42 5.58331e-05
20 *142:25 *630:A2 0.000225352
21 *142:25 *630:B1 0.000185541
22 *142:25 *638:B1 0.000318727
23 *142:25 *647:A1 2.97829e-05
24 *142:55 *625:C_N 4.27437e-05
25 *142:55 *685:A1 0
26 *142:55 *180:20 0.000497725
27 *142:75 *673:B 5.33005e-05
28 *142:75 *693:A 1.92905e-05
29 *142:75 *179:45 0.000311217
30 *628:B2 *142:12 0.000173251
31 *628:C1 *142:12 0.000173251
32 *630:D1 *142:12 6.6894e-06
33 *630:D1 *142:25 5.65955e-05
34 *632:A2 *632:B2 0.000138881
35 *632:A2 *142:25 4.18895e-05
36 *639:B1 *640:A1 0
37 *654:A_N *659:B1 0.000100165
38 *660:A3 *659:B1 3.02892e-05
39 *660:B1 *659:B1 4.59602e-05
40 *670:B *142:75 2.39779e-05
41 *672:B1 *142:75 0
42 *673:A_N *142:75 0
43 *674:B1 *142:75 7.83659e-05
44 *678:A2 *142:75 0
45 *678:B1 *142:75 5.52302e-05
46 *679:B *142:75 0.000101545
47 *680:A *142:75 3.69047e-06
48 *682:B1 *142:55 0.000259921
49 *684:B1 *142:55 0
50 *685:A3 *142:75 1.03105e-05
51 *686:B2 *686:A1 0
52 *686:B2 *142:55 0
53 *712:A_N *640:A1 0
54 *735:A2 *640:A1 0
55 *735:A2 *659:B1 0
56 *91:25 *142:55 0.000171375
57 *92:6 *142:75 1.58163e-05
58 *93:12 *142:75 1.92905e-05
59 *93:19 *142:75 3.48705e-05
60 *94:20 *142:75 0.00014183
61 *94:35 *142:75 0.000126446
62 *94:52 *142:75 2.59355e-05
63 *109:22 *640:A1 0
64 *111:8 *142:25 0.000273269
65 *119:29 *659:B1 3.69047e-06
66 *126:45 *142:75 0.000120814
67 *127:12 *142:75 2.93922e-05
68 *141:33 *142:12 0.00103634
69 *141:33 *142:55 0.000101545
*RES
1 *743:X *142:6 9.83571 
2 *142:6 *142:12 26.4286 
3 *142:12 *632:B2 12.2107 
4 *142:12 *142:25 21.0536 
5 *142:25 *640:A1 19.0857 
6 *142:25 *659:B1 26.0321 
7 *142:6 *142:55 18.375 
8 *142:55 *142:75 47 
9 *142:75 *678:A1 9.3 
10 *142:55 *686:A1 15.4429 
*END

*D_NET *143 0.00258719
*CONN
*I *615:B I *D sky130_fd_sc_hd__or2_2
*I *614:B1 I *D sky130_fd_sc_hd__o211a_2
*I *612:Y O *D sky130_fd_sc_hd__nand2_2
*CAP
1 *615:B 0.000109094
2 *614:B1 0.000365391
3 *612:Y 9.85361e-05
4 *143:8 0.000573021
5 *614:B1 *613:A1 8.58946e-05
6 *614:B1 *614:C1 6.4474e-05
7 *614:B1 *742:B 0
8 *614:B1 *164:12 0.000267099
9 *614:B1 *181:12 0
10 *614:B1 *182:8 4.98055e-06
11 *614:B1 *182:108 0.000198698
12 *615:B *615:A 1.40034e-05
13 *615:B *689:A 5.7661e-06
14 *615:B *164:12 9.31893e-05
15 *615:B *165:29 0.000170964
16 *615:B *165:40 4.43256e-05
17 *615:B *181:31 0.000189492
18 *143:8 *612:B 5.33005e-05
19 *143:8 *165:29 4.27338e-05
20 *613:A0 *614:B1 0.000126278
21 *747:A *614:B1 5.49995e-05
22 *757:A *614:B1 0
23 *88:36 *614:B1 0
24 *141:8 *614:B1 2.49484e-05
*RES
1 *612:Y *143:8 11.0857 
2 *143:8 *614:B1 28.3714 
3 *143:8 *615:B 13.55 
*END

*D_NET *144 0.00031364
*CONN
*I *614:C1 I *D sky130_fd_sc_hd__o211a_2
*I *613:X O *D sky130_fd_sc_hd__mux2_1
*CAP
1 *614:C1 9.62343e-05
2 *613:X 9.62343e-05
3 *614:B1 *614:C1 6.4474e-05
4 *747:A *614:C1 5.66971e-05
*RES
1 *613:X *614:C1 29.7786 
*END

*D_NET *145 0.000513791
*CONN
*I *620:A I *D sky130_fd_sc_hd__or3_2
*I *614:X O *D sky130_fd_sc_hd__o211a_2
*CAP
1 *620:A 0.000183085
2 *614:X 0.000183085
3 *620:A *613:S 9.7497e-05
4 *620:A *770:A 5.01234e-05
*RES
1 *614:X *620:A 31.3143 
*END

*D_NET *146 0.0128768
*CONN
*I *655:A2_N I *D sky130_fd_sc_hd__a2bb2o_2
*I *674:A2 I *D sky130_fd_sc_hd__o21ai_2
*I *683:A2_N I *D sky130_fd_sc_hd__a2bb2o_2
*I *664:A2_N I *D sky130_fd_sc_hd__a2bb2o_2
*I *645:B I *D sky130_fd_sc_hd__nor2_2
*I *635:B I *D sky130_fd_sc_hd__nor2_2
*I *629:A2_N I *D sky130_fd_sc_hd__a2bb2o_2
*I *616:B I *D sky130_fd_sc_hd__nor2_2
*I *615:X O *D sky130_fd_sc_hd__or2_2
*CAP
1 *655:A2_N 0
2 *674:A2 3.82418e-05
3 *683:A2_N 0.000433659
4 *664:A2_N 0
5 *645:B 0
6 *635:B 4.11935e-05
7 *629:A2_N 0.000612335
8 *616:B 0.00010673
9 *615:X 0.000303535
10 *146:89 0.000804957
11 *146:76 0.000799876
12 *146:68 0.000665892
13 *146:29 0.000753007
14 *146:27 0.000393135
15 *146:23 0.00148827
16 *146:8 0.00140581
17 *616:B *614:A2 2.85321e-05
18 *616:B *620:B 4.79773e-05
19 *616:B *620:C 0.000125679
20 *616:B *155:8 0.000100165
21 *629:A2_N *637:A1 0.000317633
22 *629:A2_N *637:A2 0.00012401
23 *629:A2_N *637:B1 6.19181e-05
24 *635:B *638:B1 0.000227532
25 *635:B *177:47 0.000207109
26 *683:A2_N *675:A1 8.02863e-05
27 *683:A2_N *676:A2 0.000315801
28 *683:A2_N *682:A1 0.000103897
29 *683:A2_N *683:A1_N 5.57675e-06
30 *683:A2_N *186:29 0
31 *146:8 *620:B 6.68417e-05
32 *146:8 *620:C 4.90023e-05
33 *146:8 *746:A 8.06331e-05
34 *146:8 *154:12 0
35 *146:23 *613:S 0.000167349
36 *146:23 *151:29 0.000296174
37 *146:27 *648:B2 3.18227e-05
38 *146:27 *655:B2 4.55128e-05
39 *146:27 *154:23 1.12578e-05
40 *146:27 *183:34 0.000206574
41 *146:29 *637:A2 9.61868e-05
42 *146:29 *637:B1 6.64183e-05
43 *146:29 *154:23 4.37633e-05
44 *146:29 *183:34 5.54817e-06
45 *146:68 *151:29 2.85321e-05
46 *146:68 *151:40 4.11486e-05
47 *146:68 *184:63 6.17358e-05
48 *146:76 *654:B 0
49 *146:76 *657:A1 0.000185909
50 *146:76 *657:A2 7.90803e-05
51 *146:76 *666:A1 0
52 *146:76 *666:B2 0
53 *146:76 *675:A2 2.8266e-06
54 *146:76 *184:59 0
55 *146:89 *657:A1 5.80706e-06
56 *146:89 *675:A2 0.000195218
57 *146:89 *676:A2 0.000298875
58 *146:89 *176:35 0
59 *146:89 *186:29 0
60 *627:B *629:A2_N 0
61 *637:B2 *629:A2_N 7.97838e-06
62 *657:B1 *146:76 0
63 *660:A4 *146:76 0
64 *664:B2 *146:89 0.000188778
65 *665:B1 *146:76 0
66 *665:C1 *146:76 3.94338e-05
67 *676:B1 *674:A2 0
68 *676:B1 *146:89 0.000183713
69 *676:C1 *146:89 9.91086e-05
70 *682:B1 *683:A2_N 7.57394e-05
71 *683:B1 *683:A2_N 1.02821e-05
72 *683:B2 *683:A2_N 5.49489e-05
73 *712:B *629:A2_N 0.00014183
74 *31:31 *146:76 0.000223417
75 *88:36 *146:8 0.000192635
*RES
1 *615:X *146:8 21.5143 
2 *146:8 *616:B 16.8 
3 *146:8 *146:23 16.9464 
4 *146:23 *146:27 11 
5 *146:27 *146:29 2.85714 
6 *146:29 *629:A2_N 23.5321 
7 *146:29 *635:B 15.9786 
8 *146:27 *645:B 13.8 
9 *146:23 *146:68 3.03571 
10 *146:68 *146:76 15 
11 *146:76 *664:A2_N 13.8 
12 *146:76 *146:89 14.6071 
13 *146:89 *683:A2_N 28.2866 
14 *146:89 *674:A2 10.0321 
15 *146:68 *655:A2_N 9.3 
*END

*D_NET *147 0.000757678
*CONN
*I *620:B I *D sky130_fd_sc_hd__or3_2
*I *616:Y O *D sky130_fd_sc_hd__nor2_2
*CAP
1 *620:B 0.000194664
2 *616:Y 0.000194664
3 *620:B *613:S 0.000139907
4 *620:B *154:12 0.000113624
5 *616:B *620:B 4.79773e-05
6 *146:8 *620:B 6.68417e-05
*RES
1 *616:Y *620:B 31.8143 
*END

*D_NET *148 0.00880012
*CONN
*I *768:A I *D sky130_fd_sc_hd__buf_1
*I *648:A3 I *D sky130_fd_sc_hd__a32o_2
*I *638:A2 I *D sky130_fd_sc_hd__a221o_2
*I *629:B1 I *D sky130_fd_sc_hd__a2bb2o_2
*I *619:A3 I *D sky130_fd_sc_hd__a32o_2
*I *617:Y O *D sky130_fd_sc_hd__nor3b_2
*CAP
1 *768:A 0.000269611
2 *648:A3 0.000265386
3 *638:A2 0.000412824
4 *629:B1 0.000189696
5 *619:A3 0.000216575
6 *617:Y 0.000637125
7 *148:27 0.00106417
8 *148:23 0.00113681
9 *148:10 0.000993865
10 *619:A3 *619:B1 5.15086e-05
11 *629:B1 *630:B1 5.58941e-05
12 *629:B1 *637:A1 5.33005e-05
13 *638:A2 *637:A1 1.04232e-05
14 *638:A2 *637:A2 3.52408e-05
15 *638:A2 *638:B1 6.90059e-05
16 *638:A2 *638:B2 3.04785e-05
17 *648:A3 *648:A1 4.84073e-05
18 *648:A3 *648:B1 0.000261763
19 *648:A3 *149:10 2.27129e-05
20 *648:A3 *149:12 0.000125736
21 *768:A *618:A 0.000139202
22 *768:A *151:74 0.00026367
23 *768:A *180:56 2.59355e-05
24 *768:A *181:46 0
25 *768:A *181:69 5.33614e-05
26 *148:10 *621:C 7.83659e-05
27 *148:27 *630:B1 0
28 *148:27 *149:12 8.85018e-05
29 *148:27 *149:16 0.000334006
30 *627:B *629:B1 0.000280168
31 *627:B *638:A2 0.000408303
32 *637:C1 *148:27 5.93614e-05
33 *640:B1 *638:A2 0.000162005
34 *646:C *648:A3 7.1384e-05
35 *646:C *148:23 9.66977e-05
36 *646:C *148:27 1.41642e-05
37 *649:A *619:A3 3.69047e-06
38 *649:A *148:23 0.000101692
39 *649:C_N *148:23 9.22015e-05
40 *712:B *638:A2 0.000154394
41 *31:8 *768:A 2.59355e-05
42 *133:14 *638:A2 9.74218e-05
43 *141:33 *768:A 0
44 *141:33 *148:10 0.000299118
*RES
1 *617:Y *148:10 26.6214 
2 *148:10 *619:A3 12.2107 
3 *148:10 *148:23 9.96429 
4 *148:23 *148:27 13.4286 
5 *148:27 *629:B1 21.7464 
6 *148:27 *638:A2 19.0723 
7 *148:23 *648:A3 19.9786 
8 *617:Y *768:A 32.9571 
*END

*D_NET *149 0.0115063
*CONN
*I *657:A2 I *D sky130_fd_sc_hd__a211o_2
*I *675:A2 I *D sky130_fd_sc_hd__a22o_2
*I *666:A2 I *D sky130_fd_sc_hd__a221o_2
*I *648:B1 I *D sky130_fd_sc_hd__a32o_2
*I *619:B1 I *D sky130_fd_sc_hd__a32o_2
*I *638:B1 I *D sky130_fd_sc_hd__a221o_2
*I *630:A2 I *D sky130_fd_sc_hd__a2111o_2
*I *618:X O *D sky130_fd_sc_hd__and3_2
*CAP
1 *657:A2 0.00038797
2 *675:A2 0.000334427
3 *666:A2 0
4 *648:B1 0.000105331
5 *619:B1 0.00046861
6 *638:B1 0.00042606
7 *630:A2 9.55897e-05
8 *618:X 0.000129262
9 *149:84 0.000522179
10 *149:76 0.00072941
11 *149:16 0.000705646
12 *149:12 0.000764944
13 *149:10 0.000606683
14 *149:6 0.000671964
15 *619:B1 *619:A1 3.62936e-05
16 *619:B1 *619:A2 5.33005e-05
17 *619:B1 *155:42 0.000181114
18 *630:A2 *630:A1 0.000251575
19 *630:A2 *630:B1 5.52238e-05
20 *630:A2 *635:A 1.02132e-05
21 *630:A2 *177:47 5.12625e-05
22 *638:B1 *638:B2 1.403e-05
23 *638:B1 *647:A1 9.41642e-05
24 *638:B1 *177:47 0.000125362
25 *657:A2 *657:A1 0.000232399
26 *657:A2 *666:B2 0
27 *675:A2 *666:A1 2.04318e-05
28 *675:A2 *675:B2 0.000149771
29 *149:10 *648:B2 5.57497e-05
30 *149:10 *666:B2 0.000133757
31 *149:10 *151:74 0
32 *149:16 *637:B1 0
33 *149:84 *665:A2 5.71263e-05
34 *149:84 *666:A1 8.87627e-05
35 *149:84 *666:B2 0.000310051
36 *619:A3 *619:B1 5.15086e-05
37 *627:B *638:B1 0.000100823
38 *635:B *638:B1 0.000227532
39 *638:A2 *638:B1 6.90059e-05
40 *648:A3 *648:B1 0.000261763
41 *648:A3 *149:10 2.27129e-05
42 *648:A3 *149:12 0.000125736
43 *649:A *619:B1 0.00061241
44 *649:B *149:12 7.89362e-05
45 *660:A4 *657:A2 5.62995e-05
46 *663:A *657:A2 0.000164828
47 *665:B1 *657:A2 0.000108728
48 *665:B1 *149:84 0
49 *665:C1 *149:84 0
50 *668:B1 *675:A2 0.000144773
51 *712:B *638:B1 0.000146842
52 *31:23 *657:A2 2.95641e-05
53 *31:23 *149:10 4.58096e-05
54 *31:23 *149:76 3.14163e-05
55 *31:31 *657:A2 9.22103e-06
56 *111:8 *638:B1 0.000105998
57 *142:25 *630:A2 0.000225352
58 *142:25 *638:B1 0.000318727
59 *146:76 *657:A2 7.90803e-05
60 *146:76 *675:A2 2.8266e-06
61 *146:89 *675:A2 0.000195218
62 *148:27 *149:12 8.85018e-05
63 *148:27 *149:16 0.000334006
*RES
1 *618:X *149:6 10.6571 
2 *149:6 *149:10 12.8214 
3 *149:10 *149:12 2.85714 
4 *149:12 *149:16 8.875 
5 *149:16 *630:A2 13.2643 
6 *149:16 *638:B1 28.7107 
7 *149:12 *619:B1 23.6036 
8 *149:10 *648:B1 16.3 
9 *149:6 *149:76 1.76786 
10 *149:76 *149:84 13.4018 
11 *149:84 *666:A2 9.3 
12 *149:84 *675:A2 26.0634 
13 *149:76 *657:A2 25.7464 
*END

*D_NET *150 0.000604753
*CONN
*I *620:C I *D sky130_fd_sc_hd__or3_2
*I *619:X O *D sky130_fd_sc_hd__a32o_2
*CAP
1 *620:C 0.000133567
2 *619:X 0.000133567
3 *616:B *620:C 0.000125679
4 *88:36 *620:C 0.000162937
5 *146:8 *620:C 4.90023e-05
*RES
1 *619:X *620:C 31.6714 
*END

*D_NET *151 0.0107516
*CONN
*I *666:B1 I *D sky130_fd_sc_hd__a221o_2
*I *675:B1 I *D sky130_fd_sc_hd__a22o_2
*I *682:A2 I *D sky130_fd_sc_hd__a21o_2
*I *647:A2 I *D sky130_fd_sc_hd__a221o_2
*I *637:A2 I *D sky130_fd_sc_hd__a221o_2
*I *655:B1 I *D sky130_fd_sc_hd__a2bb2o_2
*I *628:A2 I *D sky130_fd_sc_hd__a221o_2
*I *621:X O *D sky130_fd_sc_hd__and3b_2
*CAP
1 *666:B1 0.000107786
2 *675:B1 9.2974e-05
3 *682:A2 0
4 *647:A2 0.000327832
5 *637:A2 0.000311586
6 *655:B1 0
7 *628:A2 0.000404758
8 *621:X 0.000134613
9 *151:84 0.000418136
10 *151:74 0.000892479
11 *151:40 0.00082633
12 *151:29 0.00041353
13 *151:10 0.00067789
14 *151:8 0.000640658
15 *628:A2 *646:A 0.000173021
16 *628:A2 *646:B 0.000222033
17 *628:A2 *154:23 0.000206813
18 *637:A2 *637:B1 1.59689e-05
19 *637:A2 *183:34 5.66943e-05
20 *647:A2 *647:B1 5.33005e-05
21 *647:A2 *183:26 3.75824e-05
22 *647:A2 *183:30 2.09512e-05
23 *666:B1 *666:B2 7.42913e-05
24 *675:B1 *675:A1 0.000399841
25 *675:B1 *682:A1 0.000272371
26 *151:8 *621:B 0.000140882
27 *151:8 *182:30 8.25843e-06
28 *151:10 *646:A 4.79586e-05
29 *151:10 *646:B 0.000151176
30 *151:10 *181:71 0.000101545
31 *151:29 *184:63 0.000185408
32 *151:40 *655:B2 0.00012342
33 *151:40 *183:34 0.000351153
34 *151:40 *184:63 9.84673e-05
35 *151:74 *646:B 0.000106403
36 *151:74 *181:69 0.000138594
37 *151:74 *181:71 2.24646e-05
38 *151:74 *182:43 9.40167e-05
39 *151:74 *182:58 6.81083e-05
40 *627:B *637:A2 0
41 *629:A2_N *637:A2 0.00012401
42 *632:A1 *628:A2 2.66993e-05
43 *638:A2 *637:A2 3.52408e-05
44 *647:B2 *647:A2 6.26774e-06
45 *647:C1 *647:A2 0.000182804
46 *649:C_N *628:A2 0.000125679
47 *666:C1 *151:84 3.27526e-05
48 *683:B1 *151:74 0.000115474
49 *712:B *637:A2 3.33174e-05
50 *768:A *151:74 0.00026367
51 *31:23 *151:74 0
52 *31:31 *637:A2 0.000235566
53 *31:31 *151:40 0.000495884
54 *32:16 *151:74 2.22043e-05
55 *111:14 *637:A2 0.000170661
56 *146:23 *151:29 0.000296174
57 *146:29 *637:A2 9.61868e-05
58 *146:68 *151:29 2.85321e-05
59 *146:68 *151:40 4.11486e-05
60 *149:10 *151:74 0
*RES
1 *621:X *151:8 15.5679 
2 *151:8 *151:10 1.94643 
3 *151:10 *628:A2 23.5411 
4 *151:10 *151:29 10.375 
5 *151:29 *655:B1 9.3 
6 *151:29 *151:40 11.9464 
7 *151:40 *637:A2 20.7911 
8 *151:40 *647:A2 18.5009 
9 *151:8 *151:74 14.3929 
10 *151:74 *151:84 14.6429 
11 *151:84 *682:A2 9.3 
12 *151:84 *675:B1 13.1214 
13 *151:74 *666:B1 11.0679 
*END

*D_NET *152 0.000419854
*CONN
*I *623:B1 I *D sky130_fd_sc_hd__a21oi_2
*I *622:Y O *D sky130_fd_sc_hd__o21ai_2
*CAP
1 *623:B1 0.000147957
2 *622:Y 0.000147957
3 *623:B1 *619:B2 9.25014e-06
4 *623:B1 *707:A_N 1.32552e-05
5 *623:B1 *188:40 2.56694e-05
6 *88:55 *623:B1 7.57647e-05
*RES
1 *622:Y *623:B1 30.1893 
*END

*D_NET *153 0.00298813
*CONN
*I *630:B1 I *D sky130_fd_sc_hd__a2111o_2
*I *623:Y O *D sky130_fd_sc_hd__a21oi_2
*CAP
1 *630:B1 0.000871208
2 *623:Y 0.000871208
3 *630:B1 *630:A1 2.39329e-05
4 *630:B1 *733:A2 5.33005e-05
5 *630:B1 *155:44 0
6 *629:B1 *630:B1 5.58941e-05
7 *629:B2 *630:B1 0.000195562
8 *630:A2 *630:B1 5.52238e-05
9 *633:B *630:B1 0.000121323
10 *709:B1 *630:B1 0.000268396
11 *733:A3 *630:B1 5.33005e-05
12 *733:B1 *630:B1 0.000141729
13 *103:10 *630:B1 3.17148e-05
14 *108:8 *630:B1 5.97996e-05
15 *110:26 *630:B1 0
16 *142:25 *630:B1 0.000185541
17 *148:27 *630:B1 0
*RES
1 *623:Y *630:B1 43.85 
*END

*D_NET *154 0.0125863
*CONN
*I *673:B I *D sky130_fd_sc_hd__nand2b_2
*I *664:B1 I *D sky130_fd_sc_hd__a2bb2o_2
*I *681:B I *D sky130_fd_sc_hd__and2b_2
*I *654:B I *D sky130_fd_sc_hd__and2b_2
*I *647:B1 I *D sky130_fd_sc_hd__a221o_2
*I *637:B1 I *D sky130_fd_sc_hd__a221o_2
*I *628:B1 I *D sky130_fd_sc_hd__a221o_2
*I *624:X O *D sky130_fd_sc_hd__and3b_2
*CAP
1 *673:B 0.000320281
2 *664:B1 7.8143e-05
3 *681:B 0
4 *654:B 0.000678338
5 *647:B1 7.12469e-05
6 *637:B1 0.000198031
7 *628:B1 0
8 *624:X 0
9 *154:81 0.00110939
10 *154:72 0.000982901
11 *154:36 0.00112166
12 *154:23 0.0011146
13 *154:12 0.001241
14 *154:6 0.000968443
15 *647:B1 *638:B2 3.29297e-05
16 *647:B1 *644:B 6.94399e-05
17 *647:B1 *183:26 6.05161e-06
18 *647:B1 *183:30 2.59355e-05
19 *654:B *644:B 3.76713e-05
20 *654:B *647:A1 4.06094e-05
21 *654:B *183:26 6.3629e-05
22 *654:B *183:30 2.59355e-05
23 *654:B *184:59 2.8266e-06
24 *664:B1 *677:C1 9.69119e-06
25 *664:B1 *176:35 0
26 *673:B *677:C1 0.000227504
27 *673:B *179:45 5.33005e-05
28 *154:12 *628:A1 6.05161e-06
29 *154:12 *732:B 0.000130889
30 *154:12 *746:A 1.99099e-05
31 *154:12 *155:12 0.000257212
32 *154:23 *628:A1 1.98839e-05
33 *154:36 *183:30 0.000163703
34 *154:72 *746:A 8.24047e-05
35 *154:72 *163:10 0.000181378
36 *154:81 *176:14 0.0010387
37 *620:B *154:12 0.000113624
38 *628:A2 *154:23 0.000206813
39 *628:B2 *154:12 2.84269e-05
40 *629:A2_N *637:B1 6.19181e-05
41 *632:A1 *154:12 2.72887e-05
42 *632:A1 *154:23 1.23281e-05
43 *637:A2 *637:B1 1.59689e-05
44 *637:C1 *637:B1 4.06782e-05
45 *647:A2 *647:B1 5.33005e-05
46 *647:B2 *647:B1 3.29297e-05
47 *660:A2 *654:B 3.52867e-05
48 *660:A3 *654:B 7.39358e-05
49 *664:B2 *664:B1 0.000150611
50 *664:B2 *673:B 0.000482622
51 *674:B1 *673:B 4.98055e-06
52 *676:A1 *673:B 2.49484e-05
53 *679:B *673:B 0.000171375
54 *682:B1 *154:72 0
55 *682:B1 *154:81 0.000100774
56 *684:B1 *154:81 1.40415e-05
57 *740:A2 *673:B 8.00806e-05
58 *110:26 *637:B1 9.25014e-06
59 *141:33 *154:72 0
60 *142:12 *154:12 0.000212063
61 *142:12 *154:72 7.86249e-05
62 *142:75 *673:B 5.33005e-05
63 *146:8 *154:12 0
64 *146:27 *154:23 1.12578e-05
65 *146:29 *637:B1 6.64183e-05
66 *146:29 *154:23 4.37633e-05
67 *146:76 *654:B 0
68 *149:16 *637:B1 0
*RES
1 *624:X *154:6 13.8 
2 *154:6 *154:12 18.9464 
3 *154:12 *628:B1 9.3 
4 *154:12 *154:23 13.7679 
5 *154:23 *637:B1 17.8714 
6 *154:23 *154:36 9.14286 
7 *154:36 *647:B1 20.175 
8 *154:36 *654:B 30.3 
9 *154:6 *154:72 11 
10 *154:72 *681:B 9.3 
11 *154:72 *154:81 19.4107 
12 *154:81 *664:B1 15.7464 
13 *154:81 *673:B 24.4786 
*END

*D_NET *155 0.00837056
*CONN
*I *614:A2 I *D sky130_fd_sc_hd__o211a_2
*I *616:A I *D sky130_fd_sc_hd__nor2_2
*I *628:A1 I *D sky130_fd_sc_hd__a221o_2
*I *707:A_N I *D sky130_fd_sc_hd__nand2b_2
*I *733:A2 I *D sky130_fd_sc_hd__a31o_2
*I *619:A2 I *D sky130_fd_sc_hd__a32o_2
*I *732:B I *D sky130_fd_sc_hd__nand2_2
*I *747:X O *D sky130_fd_sc_hd__clkdlybuf4s25_1
*CAP
1 *614:A2 0.000460675
2 *616:A 0
3 *628:A1 6.20719e-05
4 *707:A_N 0.000582005
5 *733:A2 0.000165125
6 *619:A2 4.36033e-05
7 *732:B 0.000737591
8 *747:X 0.000579283
9 *155:44 0.000871285
10 *155:42 0.000387833
11 *155:29 0.00024521
12 *155:12 0.000854789
13 *155:8 0.000235806
14 *614:A2 *614:A1 6.26774e-06
15 *707:A_N *619:B2 5.47426e-05
16 *732:B *631:A 3.46801e-05
17 *733:A2 *166:47 0.000188967
18 *733:A2 *166:68 4.66511e-05
19 *616:B *614:A2 2.85321e-05
20 *616:B *155:8 0.000100165
21 *619:B1 *619:A2 5.33005e-05
22 *619:B1 *155:42 0.000181114
23 *622:A2 *707:A_N 5.52302e-05
24 *623:B1 *707:A_N 1.32552e-05
25 *627:A *707:A_N 9.90431e-05
26 *627:B *707:A_N 6.73496e-05
27 *628:B2 *733:A2 0.000236333
28 *628:B2 *155:42 4.73355e-05
29 *628:B2 *155:44 0.000304447
30 *628:C1 *707:A_N 5.71472e-05
31 *630:B1 *733:A2 5.33005e-05
32 *630:B1 *155:44 0
33 *630:C1 *155:44 4.79842e-05
34 *630:D1 *155:42 0.000170618
35 *630:D1 *155:44 0.000101178
36 *631:B *732:B 7.17283e-05
37 *632:A1 *628:A1 2.59355e-05
38 *632:B1 *732:B 4.68201e-05
39 *747:A *614:A2 7.80588e-05
40 *88:55 *707:A_N 0.000137983
41 *104:8 *733:A2 5.58941e-05
42 *106:8 *707:A_N 0.0001399
43 *142:12 *732:B 3.54498e-05
44 *142:12 *155:12 0.000135998
45 *142:12 *155:42 5.58331e-05
46 *154:12 *628:A1 6.05161e-06
47 *154:12 *732:B 0.000130889
48 *154:12 *155:12 0.000257212
49 *154:23 *628:A1 1.98839e-05
*RES
1 *747:X *155:8 11.4964 
2 *155:8 *155:12 7.96429 
3 *155:12 *732:B 24.0321 
4 *155:12 *155:29 4.5 
5 *155:29 *619:A2 9.83571 
6 *155:29 *155:42 8.51786 
7 *155:42 *155:44 4.07143 
8 *155:44 *733:A2 18.1036 
9 *155:44 *707:A_N 24.2107 
10 *155:42 *628:A1 15.1929 
11 *155:8 *616:A 9.3 
12 *747:X *614:A2 24.3857 
*END

*D_NET *156 0.0014803
*CONN
*I *704:A I *D sky130_fd_sc_hd__and2_2
*I *708:A_N I *D sky130_fd_sc_hd__and2b_2
*I *706:A I *D sky130_fd_sc_hd__xnor2_2
*I *705:A I *D sky130_fd_sc_hd__or2_2
*I *748:X O *D sky130_fd_sc_hd__clkdlybuf4s25_1
*CAP
1 *704:A 2.48428e-05
2 *708:A_N 0
3 *706:A 0.000189083
4 *705:A 0.000129639
5 *748:X 0.000256499
6 *156:31 0.000106228
7 *156:22 0.000397329
8 *704:A *166:32 2.28598e-05
9 *706:A *706:B 5.33334e-05
10 *706:A *166:23 0.000167998
11 *156:22 *166:12 0
12 *156:31 *166:23 2.28598e-05
13 *156:31 *166:32 7.77652e-05
14 *88:55 *156:22 0
15 *104:8 *156:22 0
16 *105:10 *706:A 3.18676e-05
*RES
1 *748:X *705:A 20.7786 
2 *748:X *156:22 20.2464 
3 *156:22 *706:A 13.5321 
4 *156:22 *156:31 1.76786 
5 *156:31 *708:A_N 9.3 
6 *156:31 *704:A 9.83571 
*END

*D_NET *157 0.00174189
*CONN
*I *711:A I *D sky130_fd_sc_hd__or2_2
*I *714:A_N I *D sky130_fd_sc_hd__and2b_2
*I *710:A I *D sky130_fd_sc_hd__and2_2
*I *749:X O *D sky130_fd_sc_hd__clkdlybuf4s25_1
*CAP
1 *711:A 0.000322211
2 *714:A_N 0.000322211
3 *710:A 1.10653e-05
4 *749:X 0.000263246
5 *157:12 0.000274311
6 *710:A *714:B 5.52238e-05
7 *711:A *714:B 3.48705e-05
8 *711:A *177:14 9.40071e-05
9 *157:12 *772:A 0
10 *734:A1 *711:A 0.000149489
11 *734:B1 *711:A 0.00010096
12 *109:22 *711:A 5.71472e-05
13 *133:14 *711:A 5.71472e-05
*RES
1 *749:X *157:12 21.7107 
2 *157:12 *710:A 9.83571 
3 *157:12 *714:A_N 9.3 
4 *714:A_N *711:A 25.7071 
*END

*D_NET *158 0.00715818
*CONN
*I *703:A_N I *D sky130_fd_sc_hd__and2b_2
*I *701:B I *D sky130_fd_sc_hd__nand2b_2
*I *730:A I *D sky130_fd_sc_hd__nand2_2
*I *644:A I *D sky130_fd_sc_hd__or2_2
*I *648:A1 I *D sky130_fd_sc_hd__a32o_2
*I *750:X O *D sky130_fd_sc_hd__clkdlybuf4s25_1
*CAP
1 *703:A_N 0.000306772
2 *701:B 0
3 *730:A 0.000290921
4 *644:A 0
5 *648:A1 0.000300784
6 *750:X 3.19807e-05
7 *158:31 0.000482204
8 *158:18 0.00205425
9 *158:8 0.0016194
10 *158:6 0.000395972
11 *703:A_N *183:12 0
12 *730:A *644:B 5.50052e-05
13 *158:18 *650:A1 0.000244259
14 *646:C *730:A 0.00028388
15 *648:A3 *648:A1 4.84073e-05
16 *650:A2 *703:A_N 0
17 *658:A *158:18 5.50052e-05
18 *658:B *158:18 4.51148e-05
19 *717:B *158:18 5.23822e-05
20 *723:A *158:18 9.15842e-06
21 *731:A *158:18 3.06878e-06
22 *735:A1 *730:A 5.49995e-05
23 *735:A2 *730:A 4.68894e-05
24 *735:B1 *730:A 0.00012249
25 *53:16 *730:A 0.000554781
26 *53:16 *158:18 6.05161e-06
27 *100:10 *158:18 4.88284e-05
28 *116:10 *158:18 2.93702e-05
29 *134:10 *730:A 1.62025e-05
*RES
1 *750:X *158:6 9.83571 
2 *158:6 *158:8 0.946429 
3 *158:8 *158:18 29.6607 
4 *158:18 *648:A1 12.7107 
5 *158:18 *158:31 12.4643 
6 *158:31 *644:A 9.3 
7 *158:31 *730:A 28.3179 
8 *158:8 *701:B 9.3 
9 *158:6 *703:A_N 23.2821 
*END

*D_NET *159 0.00382176
*CONN
*I *687:A I *D sky130_fd_sc_hd__inv_2
*I *724:A I *D sky130_fd_sc_hd__or3b_2
*I *718:A I *D sky130_fd_sc_hd__and2_2
*I *719:A I *D sky130_fd_sc_hd__nor2_2
*I *751:X O *D sky130_fd_sc_hd__clkdlybuf4s25_1
*CAP
1 *687:A 0.000116043
2 *724:A 0
3 *718:A 4.52319e-05
4 *719:A 0.000133879
5 *751:X 0
6 *159:18 0.0009699
7 *159:12 0.000891078
8 *159:6 0.000216331
9 *718:A *176:54 0
10 *719:A *176:54 0
11 *159:12 *179:62 0
12 *159:18 *184:35 0.000337508
13 *159:18 *184:45 5.52302e-05
14 *660:A1 *719:A 5.85866e-05
15 *722:A *159:18 4.53557e-05
16 *723:B *159:18 9.90367e-05
17 *736:B *719:A 5.52302e-05
18 *98:10 *687:A 0.000128941
19 *98:10 *159:12 4.15914e-05
20 *123:12 *687:A 0.00034732
21 *123:12 *159:12 0.000153054
22 *134:32 *718:A 4.73656e-05
23 *134:32 *719:A 8.00806e-05
*RES
1 *751:X *159:6 13.8 
2 *159:6 *159:12 6.98214 
3 *159:12 *159:18 15.2143 
4 *159:18 *719:A 16.6393 
5 *159:18 *718:A 14.5321 
6 *159:12 *724:A 9.3 
7 *159:6 *687:A 17.9071 
*END

*D_NET *160 0.00136526
*CONN
*I *725:A_N I *D sky130_fd_sc_hd__and2b_2
*I *696:A I *D sky130_fd_sc_hd__nand2_2
*I *698:A I *D sky130_fd_sc_hd__or2_4
*I *752:X O *D sky130_fd_sc_hd__clkdlybuf4s25_1
*CAP
1 *725:A_N 0.000193772
2 *696:A 0
3 *698:A 6.46298e-05
4 *752:X 0
5 *160:14 0.000204001
6 *160:6 0.000333143
7 *698:A *696:B 2.14757e-05
8 *725:A_N *725:B 0.000114014
9 *160:14 *696:B 9.09669e-05
10 *160:14 *725:B 0.000227736
11 *160:14 *185:68 3.34295e-05
12 *752:A *160:14 0
13 *95:16 *698:A 8.20918e-05
14 *95:16 *160:14 0
*RES
1 *752:X *160:6 13.8 
2 *160:6 *160:14 8.625 
3 *160:14 *698:A 11.0679 
4 *160:14 *696:A 9.3 
5 *160:6 *725:A_N 17.3179 
*END

*D_NET *161 0.00107356
*CONN
*I *694:A I *D sky130_fd_sc_hd__and2_2
*I *728:A_N I *D sky130_fd_sc_hd__nand2b_2
*I *693:A I *D sky130_fd_sc_hd__nor2_2
*I *753:X O *D sky130_fd_sc_hd__clkdlybuf4s25_1
*CAP
1 *694:A 2.12584e-05
2 *728:A_N 0
3 *693:A 0.00020417
4 *753:X 0.000158851
5 *161:23 2.12584e-05
6 *161:10 0.00036302
7 *693:A *186:12 0
8 *694:A *728:B 0.000142856
9 *161:10 *777:A 0
10 *679:B *694:A 0.000142856
11 *126:39 *161:10 0
12 *142:75 *693:A 1.92905e-05
*RES
1 *753:X *161:10 15.9786 
2 *161:10 *693:A 17.1929 
3 *161:10 *161:23 4.5 
4 *161:23 *728:A_N 9.3 
5 *161:23 *694:A 10.6571 
*END

*D_NET *162 0.00159342
*CONN
*I *688:A_N I *D sky130_fd_sc_hd__nand2b_2
*I *691:A I *D sky130_fd_sc_hd__and2_2
*I *690:A I *D sky130_fd_sc_hd__nor2_2
*I *754:X O *D sky130_fd_sc_hd__clkdlybuf4s25_1
*CAP
1 *688:A_N 4.53649e-05
2 *691:A 2.52056e-05
3 *690:A 0.000105557
4 *754:X 0.000147513
5 *162:10 0.000198567
6 *162:8 0.000260683
7 *688:A_N *187:6 5.03772e-05
8 *688:A_N *187:34 6.05161e-06
9 *690:A *690:B 0.000156193
10 *162:8 *769:A 0
11 *162:10 *690:B 4.46186e-06
12 *162:10 *187:10 6.07232e-05
13 *744:A1 *688:A_N 5.30637e-06
14 *744:A1 *162:8 0.000112106
15 *744:B2 *690:A 8.18071e-05
16 *744:B2 *162:8 8.17615e-05
17 *744:B2 *162:10 6.39262e-05
18 *754:A *162:8 0
19 *778:A *162:8 2.37761e-05
20 *88:10 *690:A 6.8646e-06
21 *88:10 *162:8 2.78822e-05
22 *88:10 *162:10 1.69115e-05
23 *89:12 *691:A 5.52302e-05
24 *141:27 *690:A 5.71472e-05
*RES
1 *754:X *162:8 18.175 
2 *162:8 *162:10 2.25 
3 *162:10 *690:A 17.1929 
4 *162:10 *691:A 14.3357 
5 *162:8 *688:A_N 14.7464 
*END

*D_NET *163 0.00246709
*CONN
*I *743:C I *D sky130_fd_sc_hd__or3_2
*I *746:A I *D sky130_fd_sc_hd__clkdlybuf4s25_1
*I *755:X O *D sky130_fd_sc_hd__clkdlybuf4s25_1
*CAP
1 *743:C 0
2 *746:A 0.000195979
3 *755:X 0.000493032
4 *163:10 0.000689011
5 *746:A *624:B 5.30637e-06
6 *746:A *624:C 4.47849e-05
7 *746:A *165:59 5.52302e-05
8 *746:A *165:67 8.81436e-05
9 *163:10 *745:A 0
10 *681:A_N *163:10 0.000262877
11 *88:36 *746:A 0
12 *88:36 *163:10 0
13 *89:12 *163:10 0.000268403
14 *146:8 *746:A 8.06331e-05
15 *154:12 *746:A 1.99099e-05
16 *154:72 *746:A 8.24047e-05
17 *154:72 *163:10 0.000181378
*RES
1 *755:X *163:10 24.05 
2 *163:10 *746:A 18.9607 
3 *163:10 *743:C 13.8 
*END

*D_NET *164 0.00238809
*CONN
*I *743:B I *D sky130_fd_sc_hd__or3_2
*I *745:A I *D sky130_fd_sc_hd__clkdlybuf4s25_1
*I *756:X O *D sky130_fd_sc_hd__clkdlybuf4s25_1
*CAP
1 *743:B 0.000215143
2 *745:A 0.000176113
3 *756:X 0.000351412
4 *164:12 0.000742668
5 *743:B *181:31 0.000139913
6 *743:B *181:40 9.02232e-05
7 *745:A *742:B 9.69119e-06
8 *745:A *181:10 3.93893e-05
9 *745:A *181:12 1.88048e-05
10 *164:12 *742:B 0
11 *164:12 *165:10 0
12 *164:12 *181:31 0.000140933
13 *164:12 *182:8 4.15914e-05
14 *614:B1 *164:12 0.000267099
15 *615:B *164:12 9.31893e-05
16 *88:10 *745:A 0
17 *88:36 *745:A 6.19181e-05
18 *163:10 *745:A 0
*RES
1 *756:X *164:12 24.7643 
2 *164:12 *745:A 21.4607 
3 *164:12 *743:B 12.3 
*END

*D_NET *165 0.00645592
*CONN
*I *624:A_N I *D sky130_fd_sc_hd__and3b_2
*I *617:A I *D sky130_fd_sc_hd__nor3b_2
*I *618:A I *D sky130_fd_sc_hd__and3_2
*I *621:C I *D sky130_fd_sc_hd__and3b_2
*I *742:A I *D sky130_fd_sc_hd__nor3_2
*I *625:C_N I *D sky130_fd_sc_hd__or3b_2
*I *743:A I *D sky130_fd_sc_hd__or3_2
*I *689:A I *D sky130_fd_sc_hd__nor3b_2
*I *612:A I *D sky130_fd_sc_hd__nand2_2
*I *757:X O *D sky130_fd_sc_hd__clkdlybuf4s25_1
*CAP
1 *624:A_N 0
2 *617:A 0
3 *618:A 0.000142193
4 *621:C 0.0001136
5 *742:A 0
6 *625:C_N 0.000173108
7 *743:A 0
8 *689:A 2.03441e-05
9 *612:A 0
10 *757:X 5.77931e-05
11 *165:71 0.000330372
12 *165:67 0.000352957
13 *165:59 0.000331069
14 *165:40 0.000358268
15 *165:29 0.000440688
16 *165:20 0.000320117
17 *165:14 0.000429436
18 *165:10 0.000454987
19 *618:A *624:C 5.20751e-05
20 *618:A *181:59 4.08637e-05
21 *618:A *181:69 5.33005e-05
22 *618:A *182:58 6.24774e-05
23 *618:A *182:60 2.36643e-05
24 *621:C *181:69 0
25 *621:C *182:30 0.000101986
26 *625:C_N *625:A 5.49544e-05
27 *625:C_N *180:20 7.57394e-05
28 *625:C_N *181:40 0.000265447
29 *165:10 *182:8 0
30 *165:14 *742:B 7.61054e-05
31 *165:14 *182:100 0.00012747
32 *165:14 *182:108 5.52238e-05
33 *165:29 *612:B 5.33005e-05
34 *165:40 *615:A 0
35 *165:40 *181:31 2.42662e-05
36 *165:40 *181:40 0.000117621
37 *165:67 *624:C 0.000239812
38 *165:71 *617:B 0
39 *165:71 *624:C 3.97677e-05
40 *615:B *689:A 5.7661e-06
41 *615:B *165:29 0.000170964
42 *615:B *165:40 4.43256e-05
43 *746:A *165:59 5.52302e-05
44 *746:A *165:67 8.81436e-05
45 *755:A *165:20 0.000101535
46 *768:A *618:A 0.000139202
47 *31:8 *625:C_N 5.45307e-05
48 *88:10 *165:29 0.00014183
49 *88:10 *165:40 1.33343e-05
50 *88:36 *165:10 0.00010326
51 *88:36 *165:40 0.000126572
52 *141:8 *165:20 0.000126209
53 *141:33 *621:C 0.00010326
54 *142:6 *625:C_N 2.89016e-05
55 *142:55 *625:C_N 4.27437e-05
56 *143:8 *165:29 4.27338e-05
57 *148:10 *621:C 7.83659e-05
58 *164:12 *165:10 0
*RES
1 *757:X *165:10 19.6393 
2 *165:10 *165:14 5.89286 
3 *165:14 *165:20 11.8571 
4 *165:20 *612:A 9.3 
5 *165:20 *165:29 5.07143 
6 *165:29 *689:A 9.72857 
7 *165:29 *165:40 4.25 
8 *165:40 *743:A 9.3 
9 *165:40 *625:C_N 13.9429 
10 *165:14 *742:A 9.3 
11 *165:10 *165:59 0.946429 
12 *165:59 *165:67 5.10714 
13 *165:67 *165:71 1.375 
14 *165:71 *621:C 20.6259 
15 *165:71 *618:A 12.7107 
16 *165:67 *617:A 9.3 
17 *165:59 *624:A_N 9.3 
*END

*D_NET *166 0.00660375
*CONN
*I *704:B I *D sky130_fd_sc_hd__and2_2
*I *637:A1 I *D sky130_fd_sc_hd__a221o_2
*I *629:A1_N I *D sky130_fd_sc_hd__a2bb2o_2
*I *619:B2 I *D sky130_fd_sc_hd__a32o_2
*I *705:B I *D sky130_fd_sc_hd__or2_2
*I *708:B I *D sky130_fd_sc_hd__and2b_2
*I *706:B I *D sky130_fd_sc_hd__xnor2_2
*I *758:X O *D sky130_fd_sc_hd__clkdlybuf4s25_1
*CAP
1 *704:B 2.78341e-05
2 *637:A1 0.000222419
3 *629:A1_N 0
4 *619:B2 0.000658389
5 *705:B 0.000216153
6 *708:B 0
7 *706:B 7.24779e-05
8 *758:X 0.000128515
9 *166:68 0.000276602
10 *166:47 0.000880608
11 *166:34 0.000384189
12 *166:32 0.000115981
13 *166:23 0.00019504
14 *166:12 0.000307886
15 *619:B2 *188:40 0
16 *166:47 *733:A1 0.000121842
17 *623:B1 *619:B2 9.25014e-06
18 *627:A *619:B2 3.67257e-05
19 *627:B *619:B2 0.000109753
20 *627:B *637:A1 0.000526604
21 *627:B *166:68 7.66493e-05
22 *628:B2 *619:B2 0
23 *628:C1 *619:B2 0
24 *629:A2_N *637:A1 0.000317633
25 *629:B1 *637:A1 5.33005e-05
26 *630:C1 *637:A1 1.28192e-05
27 *630:C1 *166:68 2.62823e-05
28 *632:B1 *619:B2 0.000104292
29 *637:B2 *637:A1 2.85551e-05
30 *638:A2 *637:A1 1.04232e-05
31 *704:A *166:32 2.28598e-05
32 *706:A *706:B 5.33334e-05
33 *706:A *166:23 0.000167998
34 *707:A_N *619:B2 5.47426e-05
35 *712:B *637:A1 5.70539e-05
36 *733:A2 *166:47 0.000188967
37 *733:A2 *166:68 4.66511e-05
38 *748:A *166:12 1.92905e-05
39 *88:36 *619:B2 0.000274094
40 *88:55 *619:B2 9.73258e-05
41 *88:55 *704:B 1.46264e-05
42 *88:55 *166:12 1.19309e-05
43 *88:55 *166:23 0.000227539
44 *88:55 *166:32 0.000214198
45 *104:8 *705:B 7.50601e-05
46 *104:8 *166:47 5.72318e-05
47 *156:22 *166:12 0
48 *156:31 *166:23 2.28598e-05
49 *156:31 *166:32 7.77652e-05
*RES
1 *758:X *166:12 20.175 
2 *166:12 *706:B 10.675 
3 *166:12 *166:23 3.41071 
4 *166:23 *708:B 9.3 
5 *166:23 *166:32 2.91071 
6 *166:32 *166:34 4.5 
7 *166:34 *705:B 17.1929 
8 *166:34 *166:47 4.07143 
9 *166:47 *619:B2 35.1571 
10 *166:47 *166:68 5.97321 
11 *166:68 *629:A1_N 9.3 
12 *166:68 *637:A1 18.1482 
13 *166:32 *704:B 9.83571 
*END

*D_NET *167 0.000829544
*CONN
*I *769:A I *D sky130_fd_sc_hd__dlymetal6s2s_1
*I *744:X O *D sky130_fd_sc_hd__a32o_2
*CAP
1 *769:A 0.000268559
2 *744:X 0.000268559
3 CARRY *769:A 0.00014095
4 *754:A *769:A 0.000151476
5 *162:8 *769:A 0
*RES
1 *744:X *769:A 33.4571 
*END

*D_NET *168 0.00104746
*CONN
*I *770:A I *D sky130_fd_sc_hd__clkdlybuf4s25_1
*I *620:X O *D sky130_fd_sc_hd__or3_2
*CAP
1 *770:A 0.000361061
2 *620:X 0.000361061
3 *770:A *732:A 2.79421e-05
4 *770:A *188:6 3.69047e-06
5 *770:A *188:8 8.06403e-05
6 *620:A *770:A 5.01234e-05
7 *88:36 *770:A 0.000162946
*RES
1 *620:X *770:A 35.1 
*END

*D_NET *169 0.000613043
*CONN
*I *771:A I *D sky130_fd_sc_hd__clkdlybuf4s25_1
*I *632:X O *D sky130_fd_sc_hd__o22a_2
*CAP
1 *771:A 0.000306521
2 *632:X 0.000306521
*RES
1 *632:X *771:A 23.2429 
*END

*D_NET *170 0.000880523
*CONN
*I *772:A I *D sky130_fd_sc_hd__clkdlybuf4s25_1
*I *640:X O *D sky130_fd_sc_hd__o22a_2
*CAP
1 *772:A 0.000389584
2 *640:X 0.000389584
3 *639:A2 *772:A 0
4 *640:A2 *772:A 4.16984e-05
5 *640:B2 *772:A 1.24368e-05
6 *734:A2 *772:A 0
7 *749:A *772:A 1.02504e-05
8 *109:22 *772:A 3.69697e-05
9 *157:12 *772:A 0
*RES
1 *640:X *772:A 33.3321 
*END

*D_NET *171 0.000866845
*CONN
*I *773:A I *D sky130_fd_sc_hd__clkdlybuf4s25_1
*I *651:X O *D sky130_fd_sc_hd__o2bb2a_2
*CAP
1 *773:A 0.000322456
2 *651:X 0.000322456
3 *773:A *650:A1 5.50052e-05
4 *773:A *183:22 0.000113627
5 *650:A3 *773:A 5.33005e-05
*RES
1 *651:X *773:A 24.1 
*END

*D_NET *172 0.00275453
*CONN
*I *774:A I *D sky130_fd_sc_hd__clkdlybuf4s25_1
*I *660:X O *D sky130_fd_sc_hd__o41a_2
*CAP
1 *774:A 0.000678497
2 *660:X 0.000678497
3 *774:A *184:59 0.000101473
4 *660:A1 *774:A 0.00115807
5 *119:35 *774:A 0.000137983
*RES
1 *660:X *774:A 32.6 
*END

*D_NET *173 0.000785789
*CONN
*I *775:A I *D sky130_fd_sc_hd__clkdlybuf4s25_1
*I *669:X O *D sky130_fd_sc_hd__a31o_2
*CAP
1 *775:A 0.000346692
2 *669:X 0.000346692
3 *661:A *775:A 6.05161e-06
4 *699:A *775:A 5.33005e-05
5 *96:10 *775:A 3.30526e-05
*RES
1 *669:X *775:A 23.6714 
*END

*D_NET *174 0.000904342
*CONN
*I *776:A I *D sky130_fd_sc_hd__clkdlybuf4s25_1
*I *678:X O *D sky130_fd_sc_hd__o22a_2
*CAP
1 *776:A 0.000327259
2 *678:X 0.000327259
3 *670:B *776:A 4.48206e-05
4 *94:35 *776:A 0
5 *126:39 *776:A 0.000205005
*RES
1 *678:X *776:A 34.2607 
*END

*D_NET *175 0.000353779
*CONN
*I *777:A I *D sky130_fd_sc_hd__clkbuf_2
*I *686:X O *D sky130_fd_sc_hd__o22a_2
*CAP
1 *777:A 0.000174823
2 *686:X 0.000174823
3 *126:39 *777:A 4.1331e-06
4 *161:10 *777:A 0
*RES
1 *686:X *777:A 30.2964 
*END

*D_NET *176 0.0112606
*CONN
*I *669:A1 I *D sky130_fd_sc_hd__a31o_2
*I *651:A1_N I *D sky130_fd_sc_hd__o2bb2a_2
*I *639:C1 I *D sky130_fd_sc_hd__a211o_2
*I *657:C1 I *D sky130_fd_sc_hd__a211o_2
*I *677:C1 I *D sky130_fd_sc_hd__a211o_2
*I *766:X O *D sky130_fd_sc_hd__clkbuf_2
*CAP
1 *669:A1 0.000299128
2 *651:A1_N 2.22442e-05
3 *639:C1 0.000543823
4 *657:C1 0.000102882
5 *677:C1 0.000319546
6 *766:X 0.00103302
7 *176:54 0.00140006
8 *176:50 0.00160894
9 *176:35 0.000934641
10 *176:14 0.0017085
11 *639:C1 *183:22 0.000227179
12 *651:A1_N *183:22 9.76637e-05
13 *657:C1 *657:A1 0
14 *176:35 *657:A1 0
15 *176:54 *184:35 0
16 *639:A1 *639:C1 0.000188586
17 *639:B1 *639:C1 0
18 *651:A2_N *639:C1 0
19 *651:A2_N *176:54 2.72055e-05
20 *651:B1 *639:C1 5.23822e-05
21 *651:B2 *639:C1 5.4959e-05
22 *651:B2 *651:A1_N 4.55471e-05
23 *656:A1 *176:50 6.62898e-05
24 *656:B1 *176:35 2.06112e-05
25 *656:B2 *176:50 8.07313e-05
26 *657:B1 *657:C1 0.000150618
27 *659:A1 *176:54 0
28 *661:A *669:A1 3.046e-05
29 *661:B *669:A1 0
30 *663:A *669:A1 0
31 *663:A *176:54 0
32 *664:B1 *677:C1 9.69119e-06
33 *664:B1 *176:35 0
34 *667:C1 *176:54 0
35 *669:A2 *669:A1 3.046e-05
36 *669:A3 *669:A1 9.6732e-05
37 *669:B1 *669:A1 7.50697e-05
38 *673:B *677:C1 0.000227504
39 *677:A2 *677:C1 0
40 *677:A2 *176:35 0.000289341
41 *677:B1 *677:C1 0.000125731
42 *683:B1 *176:14 5.10822e-05
43 *718:A *176:54 0
44 *719:A *176:54 0
45 *720:B *657:C1 0
46 *721:A *176:54 0
47 *722:B *176:54 0
48 *735:A2 *639:C1 0
49 *737:A1 *176:50 3.82839e-05
50 *737:A2 *176:50 5.52238e-05
51 *737:B1 *176:50 5.52302e-05
52 *738:C1 *669:A1 0
53 *99:14 *669:A1 0
54 *99:16 *669:A1 0
55 *108:8 *639:C1 0.000102197
56 *108:12 *639:C1 4.46186e-06
57 *117:22 *176:54 0
58 *117:35 *669:A1 0
59 *119:29 *176:54 0
60 *119:63 *176:54 0
61 *119:79 *657:C1 0
62 *119:79 *176:35 0
63 *119:81 *176:50 4.58976e-05
64 *130:21 *639:C1 0
65 *136:8 *669:A1 0
66 *146:89 *176:35 0
67 *154:81 *176:14 0.0010387
*RES
1 *766:X *176:14 33.0321 
2 *176:14 *677:C1 26.3179 
3 *176:14 *176:35 11.1964 
4 *176:35 *657:C1 16.05 
5 *176:35 *176:50 17.3393 
6 *176:50 *176:54 18.5893 
7 *176:54 *639:C1 29.9607 
8 *176:54 *651:A1_N 10.2554 
9 *176:50 *669:A1 19.6929 
*END

*D_NET *177 0.0066745
*CONN
*I *647:A1 I *D sky130_fd_sc_hd__a221o_2
*I *635:A I *D sky130_fd_sc_hd__nor2_2
*I *630:A1 I *D sky130_fd_sc_hd__a2111o_2
*I *711:B I *D sky130_fd_sc_hd__or2_2
*I *714:B I *D sky130_fd_sc_hd__and2b_2
*I *710:B I *D sky130_fd_sc_hd__and2_2
*I *759:X O *D sky130_fd_sc_hd__clkdlybuf4s25_1
*CAP
1 *647:A1 0.000383607
2 *635:A 1.67963e-05
3 *630:A1 0.000167523
4 *711:B 0
5 *714:B 6.7245e-05
6 *710:B 3.82418e-05
7 *759:X 0.000421741
8 *177:47 0.000493973
9 *177:41 0.000932104
10 *177:30 0.000283612
11 *177:14 0.000193536
12 *177:10 0.000554558
13 *647:A1 *638:B2 0.000221402
14 *647:A1 *644:B 5.66943e-05
15 *627:B *177:41 0.000171375
16 *630:A2 *630:A1 0.000251575
17 *630:A2 *635:A 1.02132e-05
18 *630:A2 *177:47 5.12625e-05
19 *630:B1 *630:A1 2.39329e-05
20 *635:B *177:47 0.000207109
21 *638:B1 *647:A1 9.41642e-05
22 *638:B1 *177:47 0.000125362
23 *638:C1 *647:A1 9.60875e-05
24 *640:A1 *647:A1 0
25 *654:B *647:A1 4.06094e-05
26 *659:B1 *647:A1 0
27 *710:A *714:B 5.52238e-05
28 *711:A *714:B 3.48705e-05
29 *711:A *177:14 9.40071e-05
30 *712:A_N *647:A1 5.83304e-05
31 *734:A1 *177:14 0.000186669
32 *734:A2 *177:30 5.80706e-06
33 *734:A2 *177:41 9.47456e-05
34 *734:B1 *177:14 5.62995e-05
35 *88:55 *710:B 0
36 *88:55 *714:B 0.000259934
37 *88:55 *177:14 0.000534229
38 *110:26 *177:41 0
39 *111:8 *647:A1 1.02936e-05
40 *111:14 *177:41 0.000332779
41 *111:35 *177:41 1.88048e-05
42 *133:14 *177:41 0
43 *142:25 *647:A1 2.97829e-05
*RES
1 *759:X *177:10 18.9607 
2 *177:10 *177:14 9.55357 
3 *177:14 *710:B 10.0321 
4 *177:14 *714:B 11.8893 
5 *177:10 *177:30 0.732143 
6 *177:30 *711:B 13.8 
7 *177:30 *177:41 11 
8 *177:41 *177:47 5.19643 
9 *177:47 *630:A1 12.7286 
10 *177:47 *635:A 9.72857 
11 *177:41 *647:A1 25.175 
*END

*D_NET *178 0.00213772
*CONN
*I *623:A1 I *D sky130_fd_sc_hd__a21oi_2
*I *631:A I *D sky130_fd_sc_hd__xor2_2
*I *622:A1 I *D sky130_fd_sc_hd__o21ai_2
*I *709:A1 I *D sky130_fd_sc_hd__a21o_2
*I *767:X O *D sky130_fd_sc_hd__clkbuf_2
*CAP
1 *623:A1 0
2 *631:A 0.000336702
3 *622:A1 0
4 *709:A1 7.43778e-05
5 *767:X 4.27281e-05
6 *178:27 0.000452084
7 *178:14 0.000269315
8 *178:6 0.000122283
9 *631:A *188:40 0
10 *178:27 *707:B 4.57445e-05
11 *709:B1 *709:A1 5.52238e-05
12 *709:B1 *178:6 0.000260954
13 *709:B1 *178:14 5.71472e-05
14 *732:B *631:A 3.46801e-05
15 *88:55 *178:27 0
16 *106:14 *631:A 3.34295e-05
17 *106:14 *178:27 0.000173083
18 *108:8 *178:6 0.000151061
19 *108:8 *178:14 2.89114e-05
*RES
1 *767:X *178:6 11.8893 
2 *178:6 *178:14 6.25893 
3 *178:14 *709:A1 14.9161 
4 *178:14 *178:27 2.70536 
5 *178:27 *622:A1 13.8 
6 *178:27 *631:A 19.7286 
7 *178:6 *623:A1 9.3 
*END

*D_NET *179 0.0121879
*CONN
*I *668:A1 I *D sky130_fd_sc_hd__a41o_2
*I *653:C I *D sky130_fd_sc_hd__and3b_2
*I *650:A1 I *D sky130_fd_sc_hd__a31o_2
*I *671:A I *D sky130_fd_sc_hd__nand2_2
*I *685:A1 I *D sky130_fd_sc_hd__a31o_2
*I *778:X O *D sky130_fd_sc_hd__clkbuf_2
*CAP
1 *668:A1 0
2 *653:C 1.39923e-05
3 *650:A1 0.000387892
4 *671:A 0
5 *685:A1 0.000147125
6 *778:X 0.0001672
7 *179:62 0.000629184
8 *179:60 0.000883825
9 *179:45 0.00223958
10 *179:10 0.00189738
11 *650:A1 *701:A_N 0.00012249
12 *179:45 *728:B 0.000358273
13 *179:60 *725:B 0
14 *179:60 *185:59 0
15 *179:60 *185:68 0
16 *653:B *650:A1 0.000128161
17 *660:A1 *653:C 1.51371e-05
18 *668:A4 *179:60 3.34295e-05
19 *668:A4 *179:62 0.00017309
20 *671:B *179:60 5.52238e-05
21 *672:B1 *179:60 5.74499e-06
22 *673:A_N *179:45 0.000126639
23 *673:B *179:45 5.33005e-05
24 *679:A *179:10 7.30656e-05
25 *679:B *179:45 0.000195978
26 *685:A2 *685:A1 4.46186e-06
27 *685:B1 *685:A1 3.51442e-05
28 *686:A2 *179:45 0.000101738
29 *686:B1 *179:45 0.000100931
30 *686:B2 *685:A1 0
31 *686:B2 *179:10 0
32 *686:B2 *179:45 9.00147e-05
33 *699:B *179:60 0.000127446
34 *723:A *650:A1 5.71821e-05
35 *723:B *650:A1 8.78595e-05
36 *723:B *179:62 4.25809e-05
37 *723:C_N *650:A1 3.42608e-05
38 *726:A *179:60 0
39 *727:A3 *179:60 8.16036e-05
40 *731:A *650:A1 7.24611e-05
41 *741:A2 *685:A1 8.89385e-05
42 *741:A2 *179:10 2.73968e-05
43 *773:A *650:A1 5.50052e-05
44 *53:16 *650:A1 0.000100248
45 *91:17 *685:A1 2.89114e-05
46 *91:25 *685:A1 0
47 *94:52 *179:45 0.000299015
48 *94:52 *179:60 4.38128e-05
49 *98:10 *179:60 4.66189e-05
50 *98:10 *179:62 4.29179e-05
51 *115:8 *650:A1 2.19586e-05
52 *122:10 *650:A1 9.40528e-05
53 *122:10 *179:62 0.000498521
54 *122:29 *179:60 0.000611559
55 *122:29 *179:62 1.02504e-05
56 *123:12 *179:62 0
57 *123:25 *179:60 0
58 *125:10 *179:60 7.80929e-05
59 *126:12 *179:60 0.000369381
60 *126:39 *179:45 0.000673318
61 *142:55 *685:A1 0
62 *142:75 *179:45 0.000311217
63 *158:18 *650:A1 0.000244259
64 *159:12 *179:62 0
*RES
1 *778:X *179:10 16.9071 
2 *179:10 *685:A1 16.8893 
3 *179:10 *179:45 35.9286 
4 *179:45 *671:A 9.3 
5 *179:45 *179:60 22.0536 
6 *179:60 *179:62 6.5 
7 *179:62 *650:A1 24.5321 
8 *179:62 *653:C 14.0545 
9 *179:60 *668:A1 13.8 
*END

*D_NET *180 0.00751224
*CONN
*I *656:A2 I *D sky130_fd_sc_hd__a22o_2
*I *665:A2 I *D sky130_fd_sc_hd__a211o_2
*I *676:A2 I *D sky130_fd_sc_hd__a211o_2
*I *684:A2 I *D sky130_fd_sc_hd__a211o_2
*I *768:X O *D sky130_fd_sc_hd__buf_1
*CAP
1 *656:A2 0.000330292
2 *665:A2 2.51275e-05
3 *676:A2 0.00099698
4 *684:A2 0.000319307
5 *768:X 0
6 *180:56 0.000702048
7 *180:20 0.0018589
8 *180:4 0.000889237
9 *676:A2 *675:A1 2.54558e-06
10 *684:A2 *683:A1_N 6.32651e-06
11 *684:A2 *688:B 0
12 *684:A2 *187:47 6.24704e-05
13 *180:20 *181:46 1.76039e-05
14 *625:C_N *180:20 7.57394e-05
15 *657:B1 *656:A2 3.14592e-05
16 *665:A1 *656:A2 0.000297341
17 *665:B1 *665:A2 1.97488e-05
18 *666:C1 *180:56 8.25843e-06
19 *674:B1 *676:A2 1.15281e-05
20 *676:B1 *676:A2 1.5471e-05
21 *683:A2_N *676:A2 0.000315801
22 *683:B2 *676:A2 7.83659e-05
23 *684:A1 *684:A2 4.22908e-05
24 *684:C1 *684:A2 0.000224322
25 *686:B1 *676:A2 7.6644e-05
26 *768:A *180:56 2.59355e-05
27 *31:8 *180:20 1.13883e-05
28 *31:8 *180:56 2.50705e-05
29 *31:23 *180:56 0.000124595
30 *32:8 *180:56 3.67252e-05
31 *97:31 *676:A2 6.05161e-06
32 *141:33 *180:20 2.09495e-05
33 *142:55 *180:20 0.000497725
34 *146:89 *676:A2 0.000298875
35 *149:84 *665:A2 5.71263e-05
*RES
1 *768:X *180:4 9.3 
2 *180:4 *180:20 20.7143 
3 *180:20 *684:A2 14.8179 
4 *180:20 *676:A2 32.3714 
5 *180:4 *180:56 5.875 
6 *180:56 *665:A2 19.0321 
7 *180:56 *656:A2 16.6482 
*END

*D_NET *181 0.00900275
*CONN
*I *689:B I *D sky130_fd_sc_hd__nor3b_2
*I *625:A I *D sky130_fd_sc_hd__or3b_2
*I *618:B I *D sky130_fd_sc_hd__and3_2
*I *617:C_N I *D sky130_fd_sc_hd__nor3b_2
*I *621:B I *D sky130_fd_sc_hd__and3b_2
*I *613:S I *D sky130_fd_sc_hd__mux2_1
*I *646:A I *D sky130_fd_sc_hd__or3_2
*I *624:B I *D sky130_fd_sc_hd__and3b_2
*I *615:A I *D sky130_fd_sc_hd__or2_2
*I *742:B I *D sky130_fd_sc_hd__nor3_2
*I *745:X O *D sky130_fd_sc_hd__clkdlybuf4s25_1
*CAP
1 *689:B 0
2 *625:A 2.29006e-05
3 *618:B 0
4 *617:C_N 0
5 *621:B 9.78005e-05
6 *613:S 0.000590045
7 *646:A 0.000208988
8 *624:B 0.000232495
9 *615:A 1.41633e-05
10 *742:B 0.00028484
11 *745:X 0.000196142
12 *181:71 0.000867922
13 *181:69 0.00034536
14 *181:59 0.000278332
15 *181:55 0.000424785
16 *181:46 0.000603172
17 *181:40 0.000250992
18 *181:31 0.00027658
19 *181:12 0.000399962
20 *181:10 0.000231385
21 *621:B *182:30 8.20547e-05
22 *624:B *624:C 0.000149624
23 *646:A *646:B 1.83136e-05
24 *742:B *182:100 0.000139907
25 *742:B *182:108 5.33005e-05
26 *181:46 *625:B 7.83659e-05
27 *181:55 *624:C 4.51317e-05
28 *181:55 *182:58 0.000139163
29 *181:55 *182:60 2.84109e-05
30 *181:59 *618:C 2.78576e-05
31 *181:59 *182:58 9.41642e-05
32 *181:69 *182:58 5.33005e-05
33 *614:B1 *742:B 0
34 *614:B1 *181:12 0
35 *615:B *615:A 1.40034e-05
36 *615:B *181:31 0.000189492
37 *618:A *181:59 4.08637e-05
38 *618:A *181:69 5.33005e-05
39 *620:A *613:S 9.7497e-05
40 *620:B *613:S 0.000139907
41 *621:C *181:69 0
42 *625:C_N *625:A 5.49544e-05
43 *625:C_N *181:40 0.000265447
44 *628:A2 *646:A 0.000173021
45 *743:B *181:31 0.000139913
46 *743:B *181:40 9.02232e-05
47 *745:A *742:B 9.69119e-06
48 *745:A *181:10 3.93893e-05
49 *745:A *181:12 1.88048e-05
50 *746:A *624:B 5.30637e-06
51 *768:A *181:46 0
52 *768:A *181:69 5.33614e-05
53 *88:10 *181:10 7.6644e-05
54 *88:36 *742:B 0
55 *141:8 *181:10 0
56 *141:27 *181:10 0.000183713
57 *141:33 *181:46 0.000126439
58 *141:33 *181:69 0
59 *146:23 *613:S 0.000167349
60 *151:8 *621:B 0.000140882
61 *151:10 *646:A 4.79586e-05
62 *151:10 *181:71 0.000101545
63 *151:74 *181:69 0.000138594
64 *151:74 *181:71 2.24646e-05
65 *164:12 *742:B 0
66 *164:12 *181:31 0.000140933
67 *165:14 *742:B 7.61054e-05
68 *165:40 *615:A 0
69 *165:40 *181:31 2.42662e-05
70 *165:40 *181:40 0.000117621
71 *180:20 *181:46 1.76039e-05
*RES
1 *745:X *181:10 17.2107 
2 *181:10 *181:12 0.732143 
3 *181:12 *742:B 19.175 
4 *181:12 *181:31 7.51786 
5 *181:31 *615:A 9.72857 
6 *181:31 *181:40 4.64286 
7 *181:40 *181:46 10.6429 
8 *181:46 *624:B 12.3 
9 *181:46 *181:55 4.23214 
10 *181:55 *181:59 2.39286 
11 *181:59 *181:69 8.55357 
12 *181:69 *181:71 1.64286 
13 *181:71 *646:A 18.0143 
14 *181:71 *613:S 24.2107 
15 *181:69 *621:B 16.4071 
16 *181:59 *617:C_N 9.3 
17 *181:55 *618:B 9.3 
18 *181:40 *625:A 9.83571 
19 *181:10 *689:B 13.8 
*END

*D_NET *182 0.00685323
*CONN
*I *742:C I *D sky130_fd_sc_hd__nor3_2
*I *689:C_N I *D sky130_fd_sc_hd__nor3b_2
*I *612:B I *D sky130_fd_sc_hd__nand2_2
*I *617:B I *D sky130_fd_sc_hd__nor3b_2
*I *625:B I *D sky130_fd_sc_hd__or3b_2
*I *624:C I *D sky130_fd_sc_hd__and3b_2
*I *618:C I *D sky130_fd_sc_hd__and3_2
*I *646:B I *D sky130_fd_sc_hd__or3_2
*I *621:A_N I *D sky130_fd_sc_hd__and3b_2
*I *613:A1 I *D sky130_fd_sc_hd__mux2_1
*I *746:X O *D sky130_fd_sc_hd__clkdlybuf4s25_1
*CAP
1 *742:C 0
2 *689:C_N 0
3 *612:B 1.69531e-05
4 *617:B 2.22994e-05
5 *625:B 0.000124783
6 *624:C 0.000129426
7 *618:C 4.42539e-05
8 *646:B 0.000284205
9 *621:A_N 0
10 *613:A1 0.000145073
11 *746:X 8.86028e-05
12 *182:108 0.000102267
13 *182:100 0.000112765
14 *182:60 0.000266919
15 *182:58 0.000165627
16 *182:43 0.00023392
17 *182:30 0.000618148
18 *182:21 0.000770525
19 *182:8 0.000701855
20 *614:B1 *613:A1 8.58946e-05
21 *614:B1 *182:8 4.98055e-06
22 *614:B1 *182:108 0.000198698
23 *618:A *624:C 5.20751e-05
24 *618:A *182:58 6.24774e-05
25 *618:A *182:60 2.36643e-05
26 *621:B *182:30 8.20547e-05
27 *621:C *182:30 0.000101986
28 *624:B *624:C 0.000149624
29 *628:A2 *646:B 0.000222033
30 *646:A *646:B 1.83136e-05
31 *646:C *646:B 2.50656e-05
32 *649:C_N *646:B 1.00887e-05
33 *742:B *182:100 0.000139907
34 *742:B *182:108 5.33005e-05
35 *746:A *624:C 4.47849e-05
36 *88:36 *613:A1 0
37 *88:36 *182:8 0
38 *141:8 *182:108 0.000222878
39 *141:33 *625:B 2.29627e-05
40 *143:8 *612:B 5.33005e-05
41 *151:8 *182:30 8.25843e-06
42 *151:10 *646:B 0.000151176
43 *151:74 *646:B 0.000106403
44 *151:74 *182:43 9.40167e-05
45 *151:74 *182:58 6.81083e-05
46 *164:12 *182:8 4.15914e-05
47 *165:10 *182:8 0
48 *165:14 *182:100 0.00012747
49 *165:14 *182:108 5.52238e-05
50 *165:29 *612:B 5.33005e-05
51 *165:67 *624:C 0.000239812
52 *165:71 *617:B 0
53 *165:71 *624:C 3.97677e-05
54 *181:46 *625:B 7.83659e-05
55 *181:55 *624:C 4.51317e-05
56 *181:55 *182:58 0.000139163
57 *181:55 *182:60 2.84109e-05
58 *181:59 *618:C 2.78576e-05
59 *181:59 *182:58 9.41642e-05
60 *181:69 *182:58 5.33005e-05
*RES
1 *746:X *182:8 15.1393 
2 *182:8 *613:A1 16.6571 
3 *182:8 *182:21 11.6071 
4 *182:21 *621:A_N 9.3 
5 *182:21 *182:30 9.14286 
6 *182:30 *646:B 20.5321 
7 *182:30 *182:43 1.33929 
8 *182:43 *618:C 14.3357 
9 *182:43 *182:58 8.125 
10 *182:58 *182:60 0.535714 
11 *182:60 *624:C 13.9384 
12 *182:60 *625:B 20.6036 
13 *182:58 *617:B 9.72857 
14 *746:X *182:100 10.6571 
15 *182:100 *182:108 12.3929 
16 *182:108 *612:B 9.83571 
17 *182:108 *689:C_N 9.3 
18 *182:100 *742:C 9.3 
*END

*D_NET *183 0.00757051
*CONN
*I *703:B I *D sky130_fd_sc_hd__and2b_2
*I *701:A_N I *D sky130_fd_sc_hd__nand2b_2
*I *730:B I *D sky130_fd_sc_hd__nand2_2
*I *644:B I *D sky130_fd_sc_hd__or2_2
*I *638:B2 I *D sky130_fd_sc_hd__a221o_2
*I *645:A I *D sky130_fd_sc_hd__nor2_2
*I *655:B2 I *D sky130_fd_sc_hd__a2bb2o_2
*I *648:A2 I *D sky130_fd_sc_hd__a32o_2
*I *760:X O *D sky130_fd_sc_hd__clkdlybuf4s25_1
*CAP
1 *703:B 0
2 *701:A_N 0.000108551
3 *730:B 0
4 *644:B 0.000121663
5 *638:B2 0.000195979
6 *645:A 0
7 *655:B2 5.26564e-05
8 *648:A2 0
9 *760:X 0.000141255
10 *183:59 0.000338953
11 *183:34 0.000220385
12 *183:30 0.000293957
13 *183:26 0.000448655
14 *183:22 0.000731062
15 *183:12 0.000674444
16 *183:6 0.0002772
17 *637:A2 *183:34 5.66943e-05
18 *638:A2 *638:B2 3.04785e-05
19 *638:B1 *638:B2 1.403e-05
20 *638:C1 *638:B2 7.50505e-05
21 *639:C1 *183:22 0.000227179
22 *647:A1 *638:B2 0.000221402
23 *647:A1 *644:B 5.66943e-05
24 *647:A2 *183:26 3.75824e-05
25 *647:A2 *183:30 2.09512e-05
26 *647:B1 *638:B2 3.29297e-05
27 *647:B1 *644:B 6.94399e-05
28 *647:B1 *183:26 6.05161e-06
29 *647:B1 *183:30 2.59355e-05
30 *647:B2 *644:B 5.28196e-05
31 *647:B2 *183:30 1.37018e-05
32 *647:C1 *183:30 0.000118588
33 *650:A1 *701:A_N 0.00012249
34 *650:A2 *701:A_N 7.03768e-05
35 *650:A2 *183:12 0.000148863
36 *650:A3 *183:22 5.33005e-05
37 *651:A1_N *183:22 9.76637e-05
38 *651:B1 *183:22 4.22609e-05
39 *651:B1 *183:26 0.000660052
40 *651:B2 *183:22 0.000148939
41 *654:B *644:B 3.76713e-05
42 *654:B *183:26 6.3629e-05
43 *654:B *183:30 2.59355e-05
44 *703:A_N *183:12 0
45 *712:A_N *638:B2 3.98428e-05
46 *712:B *638:B2 9.11365e-06
47 *730:A *644:B 5.50052e-05
48 *731:A *701:A_N 1.00887e-05
49 *731:B *183:12 5.52302e-05
50 *735:B1 *183:26 5.4959e-05
51 *773:A *183:22 0.000113627
52 *31:31 *638:B2 0
53 *53:16 *644:B 5.50052e-05
54 *53:16 *701:A_N 7.62184e-05
55 *109:22 *638:B2 1.76135e-05
56 *115:8 *701:A_N 5.2431e-05
57 *146:27 *655:B2 4.55128e-05
58 *146:27 *183:34 0.000206574
59 *146:29 *183:34 5.54817e-06
60 *151:40 *655:B2 0.00012342
61 *151:40 *183:34 0.000351153
62 *154:36 *183:30 0.000163703
*RES
1 *760:X *183:6 11.4786 
2 *183:6 *183:12 7.39286 
3 *183:12 *183:22 13.3036 
4 *183:22 *183:26 8.35714 
5 *183:26 *183:30 3.83929 
6 *183:30 *183:34 9.78571 
7 *183:34 *648:A2 13.8 
8 *183:34 *655:B2 15.4429 
9 *183:30 *645:A 9.3 
10 *183:26 *183:59 4.92857 
11 *183:59 *638:B2 18.4607 
12 *183:59 *644:B 16.8893 
13 *183:22 *730:B 9.3 
14 *183:12 *701:A_N 16.8893 
15 *183:6 *703:B 9.3 
*END

*D_NET *184 0.00825395
*CONN
*I *667:A2 I *D sky130_fd_sc_hd__a211o_2
*I *718:B I *D sky130_fd_sc_hd__and2_2
*I *719:B I *D sky130_fd_sc_hd__nor2_2
*I *655:A1_N I *D sky130_fd_sc_hd__a2bb2o_2
*I *666:B2 I *D sky130_fd_sc_hd__a221o_2
*I *648:B2 I *D sky130_fd_sc_hd__a32o_2
*I *724:C_N I *D sky130_fd_sc_hd__or3b_2
*I *761:X O *D sky130_fd_sc_hd__clkdlybuf4s25_1
*CAP
1 *667:A2 0
2 *718:B 0
3 *719:B 0
4 *655:A1_N 0
5 *666:B2 0.000483506
6 *648:B2 9.77166e-05
7 *724:C_N 0
8 *761:X 0.000279405
9 *184:63 0.000766075
10 *184:59 0.000655138
11 *184:45 0.000648259
12 *184:35 0.00050983
13 *184:23 0.000639498
14 *184:10 0.000587046
15 *666:B2 *666:A1 2.55884e-05
16 Y[4] *184:10 0
17 *654:B *184:59 2.8266e-06
18 *657:A2 *666:B2 0
19 *660:A1 *184:59 0.000300705
20 *660:A2 *184:59 0
21 *660:A3 *184:59 3.73361e-05
22 *660:B1 *184:59 0
23 *663:A *184:35 0.000417267
24 *665:B1 *666:B2 0
25 *666:B1 *666:B2 7.42913e-05
26 *667:A1 *184:23 9.60939e-05
27 *667:A1 *184:35 3.03071e-05
28 *667:B1 *184:35 4.87953e-05
29 *667:C1 *184:35 0.000201127
30 *668:A4 *184:23 5.52302e-05
31 *683:B1 *666:B2 0
32 *720:A *184:35 0.00010096
33 *720:A *184:45 0.000105569
34 *720:B *184:45 0.000148196
35 *723:B *184:10 0
36 *751:A *184:23 0
37 *774:A *184:59 0.000101473
38 *31:23 *666:B2 0.000220095
39 *31:31 *648:B2 0
40 *31:31 *666:B2 0
41 *119:8 *184:45 5.33005e-05
42 *119:10 *184:45 0.00012401
43 *119:79 *184:45 2.24646e-05
44 *123:12 *184:10 4.81157e-05
45 *123:12 *184:23 0.000103993
46 *146:27 *648:B2 3.18227e-05
47 *146:68 *184:63 6.17358e-05
48 *146:76 *666:B2 0
49 *146:76 *184:59 0
50 *149:10 *648:B2 5.57497e-05
51 *149:10 *666:B2 0.000133757
52 *149:84 *666:B2 0.000310051
53 *151:29 *184:63 0.000185408
54 *151:40 *184:63 9.84673e-05
55 *159:18 *184:35 0.000337508
56 *159:18 *184:45 5.52302e-05
57 *176:54 *184:35 0
*RES
1 *761:X *184:10 18.7107 
2 *184:10 *724:C_N 13.8 
3 *184:10 *184:23 10.4643 
4 *184:23 *184:35 20.0357 
5 *184:35 *184:45 13.5536 
6 *184:45 *184:59 18.9464 
7 *184:59 *184:63 8.41071 
8 *184:63 *648:B2 16.05 
9 *184:63 *666:B2 25.175 
10 *184:59 *655:A1_N 9.3 
11 *184:45 *719:B 9.3 
12 *184:35 *718:B 9.3 
13 *184:23 *667:A2 9.3 
*END

*D_NET *185 0.00831903
*CONN
*I *725:B I *D sky130_fd_sc_hd__and2b_2
*I *696:B I *D sky130_fd_sc_hd__nand2_2
*I *698:B I *D sky130_fd_sc_hd__or2_4
*I *657:A1 I *D sky130_fd_sc_hd__a211o_2
*I *664:A1_N I *D sky130_fd_sc_hd__a2bb2o_2
*I *675:B2 I *D sky130_fd_sc_hd__a22o_2
*I *762:X O *D sky130_fd_sc_hd__clkdlybuf4s25_1
*CAP
1 *725:B 0.00022392
2 *696:B 0.000137519
3 *698:B 0
4 *657:A1 0.000287645
5 *664:A1_N 0
6 *675:B2 0.000280512
7 *762:X 0.000105127
8 *185:68 0.000407459
9 *185:59 0.000240465
10 *185:22 0.000381839
11 *185:16 0.00131653
12 *185:6 0.00122713
13 *675:B2 *666:A1 0.000362516
14 *675:B2 *186:29 9.25014e-06
15 Y[5] *185:59 0
16 *657:A2 *657:A1 0.000232399
17 *657:B1 *657:A1 0
18 *657:C1 *657:A1 0
19 *660:A4 *657:A1 1.74352e-05
20 *662:A *185:16 6.73733e-05
21 *662:B *185:16 0.000102207
22 *663:A *657:A1 0.000274294
23 *668:B1 *675:B2 3.66478e-05
24 *668:B1 *185:16 0.000557053
25 *668:B1 *185:22 6.53837e-05
26 *669:A3 *185:16 5.52238e-05
27 *669:B1 *185:16 0.000226513
28 *675:A2 *675:B2 0.000149771
29 *698:A *696:B 2.14757e-05
30 *699:B *185:59 4.48206e-05
31 *720:A *657:A1 0
32 *725:A_N *725:B 0.000114014
33 *727:A3 *725:B 8.16036e-05
34 *738:A2 *185:16 0.000263269
35 *738:C1 *185:16 6.87574e-05
36 *98:10 *185:59 7.83659e-05
37 *123:12 *185:6 4.58976e-05
38 *123:12 *185:16 0.000132967
39 *123:25 *185:16 0.000103039
40 *125:10 *725:B 3.40128e-05
41 *137:10 *185:16 2.27416e-05
42 *146:76 *657:A1 0.000185909
43 *146:89 *657:A1 5.80706e-06
44 *160:14 *696:B 9.09669e-05
45 *160:14 *725:B 0.000227736
46 *160:14 *185:68 3.34295e-05
47 *176:35 *657:A1 0
48 *179:60 *725:B 0
49 *179:60 *185:59 0
50 *179:60 *185:68 0
*RES
1 *762:X *185:6 10.6571 
2 *185:6 *185:16 19.1964 
3 *185:16 *185:22 2.11607 
4 *185:22 *675:B2 24.9518 
5 *185:22 *664:A1_N 9.3 
6 *185:16 *657:A1 25.9964 
7 *185:6 *185:59 8.26786 
8 *185:59 *698:B 13.8 
9 *185:59 *185:68 1.03571 
10 *185:68 *696:B 16.425 
11 *185:68 *725:B 19.7286 
*END

*D_NET *186 0.0049476
*CONN
*I *694:B I *D sky130_fd_sc_hd__and2_2
*I *728:B I *D sky130_fd_sc_hd__nand2b_2
*I *674:A1 I *D sky130_fd_sc_hd__o21ai_2
*I *682:A1 I *D sky130_fd_sc_hd__a21o_2
*I *666:A1 I *D sky130_fd_sc_hd__a221o_2
*I *693:B I *D sky130_fd_sc_hd__nor2_2
*I *763:X O *D sky130_fd_sc_hd__clkdlybuf4s25_1
*CAP
1 *694:B 0
2 *728:B 8.45558e-05
3 *674:A1 0
4 *682:A1 7.99832e-05
5 *666:A1 0.000342754
6 *693:B 2.94147e-05
7 *763:X 0.000505931
8 *186:60 8.45558e-05
9 *186:29 0.000614831
10 *186:23 0.000332081
11 *186:12 0.000313155
12 *186:10 0.000649683
13 *682:A1 *675:A1 2.20226e-05
14 *665:C1 *666:A1 0
15 *666:B2 *666:A1 2.55884e-05
16 *668:B1 *666:A1 3.57366e-05
17 *673:A_N *186:10 1.02504e-05
18 *673:A_N *186:12 0.000220455
19 *673:A_N *186:23 9.25014e-06
20 *674:B1 *186:23 0
21 *675:A2 *666:A1 2.04318e-05
22 *675:B1 *682:A1 0.000272371
23 *675:B2 *666:A1 0.000362516
24 *675:B2 *186:29 9.25014e-06
25 *676:A1 *186:23 0
26 *676:C1 *186:23 0
27 *676:C1 *186:29 0
28 *679:B *728:B 0.000116345
29 *679:B *186:10 0
30 *683:A2_N *682:A1 0.000103897
31 *683:A2_N *186:29 0
32 *693:A *186:12 0
33 *694:A *728:B 0.000142856
34 *753:A *186:10 7.77751e-05
35 *763:A *186:10 3.48705e-05
36 *146:76 *666:A1 0
37 *146:89 *186:29 0
38 *149:84 *666:A1 8.87627e-05
39 *179:45 *728:B 0.000358273
*RES
1 *763:X *186:10 20.4964 
2 *186:10 *186:12 2.85714 
3 *186:12 *693:B 14.3357 
4 *186:12 *186:23 2.55357 
5 *186:23 *186:29 3.21429 
6 *186:29 *666:A1 20.7643 
7 *186:29 *682:A1 16.8 
8 *186:23 *674:A1 13.8 
9 *186:10 *186:60 4.5 
10 *186:60 *728:B 13.1393 
11 *186:60 *694:B 9.3 
*END

*D_NET *187 0.005409
*CONN
*I *683:A1_N I *D sky130_fd_sc_hd__a2bb2o_2
*I *675:A1 I *D sky130_fd_sc_hd__a22o_2
*I *688:B I *D sky130_fd_sc_hd__nand2b_2
*I *691:B I *D sky130_fd_sc_hd__and2_2
*I *690:B I *D sky130_fd_sc_hd__nor2_2
*I *764:X O *D sky130_fd_sc_hd__clkdlybuf4s25_1
*CAP
1 *683:A1_N 2.77429e-05
2 *675:A1 0.000725556
3 *688:B 3.82418e-05
4 *691:B 3.04135e-05
5 *690:B 0.000212147
6 *764:X 7.48623e-05
7 *187:47 0.0012139
8 *187:34 0.000655322
9 *187:10 0.000287494
10 *187:6 0.000276269
11 *675:B1 *675:A1 0.000399841
12 *676:A2 *675:A1 2.54558e-06
13 *682:A1 *675:A1 2.20226e-05
14 *682:B1 *675:A1 4.4622e-05
15 *683:A2_N *675:A1 8.02863e-05
16 *683:A2_N *683:A1_N 5.57675e-06
17 *683:B1 *675:A1 9.60875e-05
18 *683:B2 *675:A1 1.64616e-05
19 *684:A1 *187:47 0.00032853
20 *684:A2 *683:A1_N 6.32651e-06
21 *684:A2 *688:B 0
22 *684:A2 *187:47 6.24704e-05
23 *684:C1 *683:A1_N 0
24 *684:C1 *187:47 7.50473e-05
25 *688:A_N *187:6 5.03772e-05
26 *688:A_N *187:34 6.05161e-06
27 *690:A *690:B 0.000156193
28 *744:A1 *187:34 3.06878e-06
29 *88:10 *690:B 0.000196269
30 *88:10 *187:10 0.000126439
31 *89:12 *691:B 5.33005e-05
32 *141:27 *690:B 7.03393e-05
33 *162:10 *690:B 4.46186e-06
34 *162:10 *187:10 6.07232e-05
*RES
1 *764:X *187:6 10.2464 
2 *187:6 *187:10 6.14286 
3 *187:10 *690:B 18.9607 
4 *187:10 *691:B 14.3357 
5 *187:6 *187:34 1.76786 
6 *187:34 *688:B 10.0321 
7 *187:34 *187:47 7.66071 
8 *187:47 *675:A1 19.3179 
9 *187:47 *683:A1_N 9.94286 
*END

*D_NET *188 0.00619962
*CONN
*I *619:A1 I *D sky130_fd_sc_hd__a32o_2
*I *733:A1 I *D sky130_fd_sc_hd__a31o_2
*I *707:B I *D sky130_fd_sc_hd__nand2b_2
*I *614:A1 I *D sky130_fd_sc_hd__o211a_2
*I *732:A I *D sky130_fd_sc_hd__nand2_2
*I *765:X O *D sky130_fd_sc_hd__clkdlybuf4s25_1
*CAP
1 *619:A1 0.000250516
2 *733:A1 0.000560268
3 *707:B 0.000293752
4 *614:A1 0.000154803
5 *732:A 0.000365475
6 *765:X 0
7 *188:40 0.00121474
8 *188:8 0.000675485
9 *188:6 0.000556456
10 *188:4 0.000291047
11 *613:A0 *614:A1 0.000106576
12 *613:A0 *732:A 0
13 *613:A0 *188:40 0
14 *614:A2 *614:A1 6.26774e-06
15 *619:B1 *619:A1 3.62936e-05
16 *619:B2 *188:40 0
17 *623:B1 *188:40 2.56694e-05
18 *631:A *188:40 0
19 *747:A *614:A1 1.28809e-05
20 *765:A *614:A1 5.65899e-05
21 *770:A *732:A 2.79421e-05
22 *770:A *188:6 3.69047e-06
23 *770:A *188:8 8.06403e-05
24 *88:36 *188:40 0.000263864
25 *106:14 *188:40 5.35423e-05
26 *108:8 *707:B 0.000314132
27 *108:8 *733:A1 0.000681406
28 *166:47 *733:A1 0.000121842
29 *178:27 *707:B 4.57445e-05
*RES
1 *765:X *188:4 9.3 
2 *188:4 *188:6 0.535714 
3 *188:6 *188:8 2.17857 
4 *188:8 *732:A 22.9429 
5 *188:8 *614:A1 21.8937 
6 *188:6 *188:40 17.3214 
7 *188:40 *707:B 22.9429 
8 *188:40 *733:A1 26.6393 
9 *188:4 *619:A1 12.3 
*END
